     Program PWSCF v.6.3 starts on 11Nov2020 at  7:48:18

     R & G space division:  proc/nbgrp/npool/nimage =      20
     Reading input from wd/eos/eos_001.in
Warning: card &IONS ignored
Warning: card ION_DYNAMICS = 'BFGS', ignored
Warning: card / ignored
Warning: card &CELL ignored
Warning: card CELL_DYNAMICS = 'BFGS', ignored
Warning: card CELL_FACTOR = 2.0, ignored
Warning: card PRESS = 0.0, ignored
Warning: card / ignored

     Current dimensions of program PWSCF are:
     Max number of different atomic species (ntypx) = 10
     Max number of k-points (npk) =  40000
     Max angular momentum in pseudopotentials (lmaxx) =  3
               file Pd.pbe-spn-kjpaw_psl.1.0.0.UPF: wavefunction(s)  4S 5S 4D renormalized

     Subspace diagonalization in iterative solution of the eigenvalue problem:
     a serial algorithm will be used

     bravais-lattice index     =            0
     lattice parameter (alat)  =      14.8394  a.u.
     unit-cell volume          =    3218.9928 (a.u.)^3
     number of atoms/cell      =           32
     number of atomic types    =            1
     number of electrons       =       576.00
     number of Kohn-Sham states=          346
     kinetic-energy cutoff     =      71.0000  Ry
     charge density cutoff     =     430.0000  Ry
     convergence threshold     =      1.0E-06
     mixing beta               =       0.1000
     number of iterations used =           10  plain     mixing
     Exchange-correlation      = SLA PW PBX PBC ( 1  4  3  4 0 0)

     celldm(1)=  14.839420  celldm(2)=   0.000000  celldm(3)=   0.000000
     celldm(4)=   0.000000  celldm(5)=   0.000000  celldm(6)=   0.000000

     crystal axes: (cart. coord. in units of alat)
               a(1) = (   0.995000   0.000000   0.000000 )
               a(2) = (   0.000000   0.995000   0.000000 )
               a(3) = (   0.000000   0.000000   0.995000 )

     reciprocal axes: (cart. coord. in units 2 pi/alat)
               b(1) = (  1.005025  0.000000  0.000000 )
               b(2) = (  0.000000  1.005025  0.000000 )
               b(3) = (  0.000000  0.000000  1.005025 )

     PseudoPot. # 1 for Pd read from file:
     /rds/homes/b/bxp912/pp/Pd.pbe-spn-kjpaw_psl.1.0.0.UPF
     MD5 check sum: 790f2ebce206edfd9790dcb9844eca51
     Pseudo is Projector augmented-wave + core cor, Zval = 18.0
     Generated using "atomic" code by A. Dal Corso v.6.3
     Shape of augmentation charge: PSQ
     Using radial grid of 1235 points,  6 beta functions with:
                l(1) =   0
                l(2) =   0
                l(3) =   1
                l(4) =   1
                l(5) =   2
                l(6) =   2
     Q(r) pseudized with 0 coefficients

     atomic species   valence    mass     pseudopotential
        Pd            18.00   106.42000     Pd( 1.00)

     48 Sym. Ops., with inversion, found

   Cartesian axes

     site n.     atom                  positions (alat units)
         1           Pd  tau(   1) = (   0.0000000   0.0000000   0.0000000  )
         2           Pd  tau(   2) = (   0.2487544   0.2487544   0.0000000  )
         3           Pd  tau(   3) = (   0.2487544   0.0000000   0.2487539  )
         4           Pd  tau(   4) = (   0.0000000   0.2487544   0.2487539  )
         5           Pd  tau(   5) = (   0.0000000   0.0000000   0.4974990  )
         6           Pd  tau(   6) = (   0.2487615   0.2487615   0.4974990  )
         7           Pd  tau(   7) = (   0.2487544   0.0000000   0.7462451  )
         8           Pd  tau(   8) = (   0.0000000   0.2487544   0.7462451  )
         9           Pd  tau(   9) = (   0.0000000   0.4974998   0.0000000  )
        10           Pd  tau(  10) = (   0.2487544   0.7462453   0.0000000  )
        11           Pd  tau(  11) = (   0.2487615   0.4974998   0.2487608  )
        12           Pd  tau(  12) = (   0.0000000   0.7462453   0.2487539  )
        13           Pd  tau(  13) = (   0.0000000   0.4974998   0.4974990  )
        14           Pd  tau(  14) = (   0.2487615   0.7462382   0.4974990  )
        15           Pd  tau(  15) = (   0.2487615   0.4974998   0.7462382  )
        16           Pd  tau(  16) = (   0.0000000   0.7462453   0.7462451  )
        17           Pd  tau(  17) = (   0.4974998   0.0000000   0.0000000  )
        18           Pd  tau(  18) = (   0.7462453   0.2487544   0.0000000  )
        19           Pd  tau(  19) = (   0.7462453   0.0000000   0.2487539  )
        20           Pd  tau(  20) = (   0.4974998   0.2487615   0.2487608  )
        21           Pd  tau(  21) = (   0.4974998   0.0000000   0.4974990  )
        22           Pd  tau(  22) = (   0.7462382   0.2487615   0.4974990  )
        23           Pd  tau(  23) = (   0.7462453   0.0000000   0.7462451  )
        24           Pd  tau(  24) = (   0.4974998   0.2487615   0.7462382  )
        25           Pd  tau(  25) = (   0.4974998   0.4974998   0.0000000  )
        26           Pd  tau(  26) = (   0.7462453   0.7462453   0.0000000  )
        27           Pd  tau(  27) = (   0.7462382   0.4974998   0.2487608  )
        28           Pd  tau(  28) = (   0.4974998   0.7462382   0.2487608  )
        29           Pd  tau(  29) = (   0.4974998   0.4974998   0.4974990  )
        30           Pd  tau(  30) = (   0.7462382   0.7462382   0.4974990  )
        31           Pd  tau(  31) = (   0.7462382   0.4974998   0.7462382  )
        32           Pd  tau(  32) = (   0.4974998   0.7462382   0.7462382  )

     number of k points=    35  Marzari-Vanderbilt smearing, width (Ry)=  0.0400
                       cart. coord. in units 2pi/alat
        k(    1) = (   0.0558347   0.0558347   0.0558347), wk =   0.0219479
        k(    2) = (   0.0558347   0.0558347   0.1675042), wk =   0.0658436
        k(    3) = (   0.0558347   0.0558347   0.2791736), wk =   0.0658436
        k(    4) = (   0.0558347   0.0558347   0.3908431), wk =   0.0658436
        k(    5) = (   0.0558347   0.0558347  -0.5025126), wk =   0.0329218
        k(    6) = (   0.0558347   0.1675042   0.1675042), wk =   0.0658436
        k(    7) = (   0.0558347   0.1675042   0.2791736), wk =   0.1316872
        k(    8) = (   0.0558347   0.1675042   0.3908431), wk =   0.1316872
        k(    9) = (   0.0558347   0.1675042  -0.5025126), wk =   0.0658436
        k(   10) = (   0.0558347   0.2791736   0.2791736), wk =   0.0658436
        k(   11) = (   0.0558347   0.2791736   0.3908431), wk =   0.1316872
        k(   12) = (   0.0558347   0.2791736  -0.5025126), wk =   0.0658436
        k(   13) = (   0.0558347   0.3908431   0.3908431), wk =   0.0658436
        k(   14) = (   0.0558347   0.3908431  -0.5025126), wk =   0.0658436
        k(   15) = (   0.0558347  -0.5025126  -0.5025126), wk =   0.0164609
        k(   16) = (   0.1675042   0.1675042   0.1675042), wk =   0.0219479
        k(   17) = (   0.1675042   0.1675042   0.2791736), wk =   0.0658436
        k(   18) = (   0.1675042   0.1675042   0.3908431), wk =   0.0658436
        k(   19) = (   0.1675042   0.1675042  -0.5025126), wk =   0.0329218
        k(   20) = (   0.1675042   0.2791736   0.2791736), wk =   0.0658436
        k(   21) = (   0.1675042   0.2791736   0.3908431), wk =   0.1316872
        k(   22) = (   0.1675042   0.2791736  -0.5025126), wk =   0.0658436
        k(   23) = (   0.1675042   0.3908431   0.3908431), wk =   0.0658436
        k(   24) = (   0.1675042   0.3908431  -0.5025126), wk =   0.0658436
        k(   25) = (   0.1675042  -0.5025126  -0.5025126), wk =   0.0164609
        k(   26) = (   0.2791736   0.2791736   0.2791736), wk =   0.0219479
        k(   27) = (   0.2791736   0.2791736   0.3908431), wk =   0.0658436
        k(   28) = (   0.2791736   0.2791736  -0.5025126), wk =   0.0329218
        k(   29) = (   0.2791736   0.3908431   0.3908431), wk =   0.0658436
        k(   30) = (   0.2791736   0.3908431  -0.5025126), wk =   0.0658436
        k(   31) = (   0.2791736  -0.5025126  -0.5025126), wk =   0.0164609
        k(   32) = (   0.3908431   0.3908431   0.3908431), wk =   0.0219479
        k(   33) = (   0.3908431   0.3908431  -0.5025126), wk =   0.0329218
        k(   34) = (   0.3908431  -0.5025126  -0.5025126), wk =   0.0164609
        k(   35) = (  -0.5025126  -0.5025126  -0.5025126), wk =   0.0027435

     Check: negative/imaginary core charge=   -0.000002    0.000000

     Initial potential from superposition of free atoms

     starting charge  575.98776, renormalised to  576.00000
     Starting wfcs are  320 randomized atomic wfcs +   26 random wfcs
     Checking if some PAW data can be deallocated...

     Self-consistent Calculation

     iteration #  1     ecut=    71.00 Ry     beta= 0.10
     Davidson diagonalization with overlap
     ethr =  1.00E-02,  avg # of iterations =  3.0

     Threshold (ethr) on eigenvalues was too large:
     Diagonalizing with lowered threshold

     Davidson diagonalization with overlap
     ethr =  7.49E-05,  avg # of iterations =  3.4

     total energy              =  -16385.00504399 Ry
     Harris-Foulkes estimate   =  -16385.06522564 Ry
     estimated scf accuracy    <       0.42696106 Ry

[...]

     total energy              =  -16384.94801435 Ry
     Harris-Foulkes estimate   =  -16384.94801098 Ry
     estimated scf accuracy    <       0.00000415 Ry

     iteration # 10     ecut=    71.00 Ry     beta= 0.10
     Davidson diagonalization with overlap
     ethr =  7.20E-10,  avg # of iterations =  1.0

     End of self-consistent calculation

          k = 0.0558 0.0558 0.0558 ( 32528 PWs)   bands (ev):

   -64.5203 -64.4892 -64.4891 -64.4891 -64.4832 -64.4831 -64.4831 -64.4722
   -64.4721 -64.4720 -64.4695 -64.4692 -64.4690 -64.4690 -64.4688 -64.4688
   -64.4687 -64.4685 -64.4684 -64.4679 -64.4661 -64.4660 -64.4659 -64.4526
   -64.4521 -64.4521 -64.4519 -64.4518 -64.4517 -64.4516 -64.4515 -64.4511
   -30.4148 -30.4148 -30.4148 -30.4136 -30.3936 -30.3936 -30.3936 -30.3117
   -30.3116 -30.3116 -30.3069 -30.3069 -30.3069 -30.3069 -30.3069 -30.3068
   -30.2987 -30.2986 -30.2986 -30.2929 -30.2929 -30.2929 -30.2929 -30.2929
   -30.2928 -30.2732 -30.2732 -30.2732 -30.2732 -30.2732 -30.2731 -30.2300
   -30.2300 -30.2300 -30.2040 -30.2040 -30.2040 -30.1974 -30.1974 -30.1974
   -30.1875 -30.1875 -30.1875 -30.1875 -30.1875 -30.1875 -30.1716 -30.1716
   -30.1716 -30.1710 -30.1707 -30.1707 -30.1707 -30.1706 -30.1706 -30.1700
   -30.1700 -30.1698 -30.1683 -30.1683 -30.1682 -30.1015 -30.1015 -30.1014
   -30.1013 -30.1013 -30.1012 -30.0883 -30.0883 -30.0883 -30.0882 -30.0882
   -30.0882 -30.0845 -30.0844 -30.0844 -30.0801 -30.0798 -30.0797 -30.0789
   -30.0789 -30.0789 -30.0788 -30.0788 -30.0787 -30.0784 -30.0784 -30.0781
   -30.0773 -30.0773 -30.0714 -30.0714 -30.0714 -30.0231 -30.0205 -30.0205
    12.5760  14.3221  14.3221  14.3221  14.4010  14.4150  14.4150  14.4150
    14.6039  14.6039  14.6039  14.6236  14.6238  14.6238  14.8162  14.8163
    14.8164  15.3560  15.3560  15.3561  15.3561  15.3561  15.3563  15.5154
    15.5155  15.5155  15.6784  15.6785  15.6785  15.7063  15.7064  15.7064
    15.7608  15.7608  15.7608  15.7609  15.7609  15.7609  15.7610  15.7611
    15.7611  16.1070  16.1070  16.1070  16.1071  16.1071  16.1071  16.2168
    16.2169  16.2169  16.2391  16.2392  16.2392  16.2392  16.2392  16.2393
    16.2968  16.2969  16.2969  16.4710  16.4710  16.4710  16.4711  16.4711
    16.4711  16.5769  16.5769  16.5770  16.5808  16.5808  16.5808  16.5808
    16.5808  16.5810  16.6908  16.6910  16.6910  16.7596  16.7596  16.7596
    16.7811  16.7811  16.7919  16.7919  16.7919  16.8116  16.8317  16.8317
    17.6463  17.6464  17.6464  17.7081  17.7081  17.7082  17.7825  17.7825
    17.7825  17.7826  17.7826  17.7826  17.7887  17.7887  17.7888  17.8378
    17.8380  17.8380  17.9456  17.9456  17.9457  18.0664  18.0666  18.0666
    18.1955  18.1955  18.1956  18.2544  18.2544  18.2545  18.3276  18.3278
    18.3278  18.3278  18.3278  18.3278  18.3478  18.3479  18.3479  18.4000
    18.4000  18.4061  18.4061  18.4061  18.4061  18.4062  18.4063  18.5181
    18.5181  18.5182  18.9167  18.9167  18.9168  19.0211  19.0211  19.0211
    19.4094  19.4094  19.4094  19.5420  19.5420  19.5420  19.5694  19.5694
    19.5902  19.5902  19.5902  19.8259  19.8259  19.8259  19.8823  19.8824
    19.8824  19.8824  19.8824  19.8824  19.8856  19.8856  19.8857  20.5082
    20.8236  20.8236  20.8236  21.4008  21.4009  21.4009  21.9174  21.9175
    21.9175  21.9175  21.9175  21.9175  22.4526  22.4527  22.4527  22.9947
    22.9947  22.9947  26.8677  26.8677  26.8678  27.0242  27.9810  27.9810
    27.9810  27.9811  27.9811  27.9811  28.6800  28.6801  28.6801  28.6802
    28.6802  28.6802  30.1296  30.1296  30.1296  30.1296  30.1297  30.1297
    30.3229  30.3229  30.3229  31.2503  31.2775  31.2775  31.2775  31.2776
    31.2776  31.2777

[...]

          k = 0.3908-0.5025-0.5025 ( 32508 PWs)   bands (ev):

[...]

          k =-0.5025-0.5025-0.5025 ( 32344 PWs)   bands (ev):

   -64.4955 -64.4952 -64.4952 -64.4950 -64.4947 -64.4944 -64.4944 -64.4942
   -64.4613 -64.4612 -64.4611 -64.4610 -64.4608 -64.4608 -64.4607 -64.4606
   -64.4605 -64.4605 -64.4604 -64.4604 -64.4603 -64.4602 -64.4600 -64.4600
   -64.4599 -64.4599 -64.4598 -64.4597 -64.4597 -64.4595 -64.4594 -64.4592
   -30.3505 -30.3505 -30.3504 -30.3504 -30.3502 -30.3501 -30.3501 -30.3500
   -30.3500 -30.3499 -30.3499 -30.3499 -30.3498 -30.3497 -30.3497 -30.3497
   -30.3496 -30.3496 -30.3495 -30.3495 -30.3493 -30.3492 -30.3492 -30.3492
   -30.2206 -30.2205 -30.2205 -30.2204 -30.2203 -30.2202 -30.2202 -30.2201
   -30.1812 -30.1811 -30.1811 -30.1810 -30.1810 -30.1810 -30.1809 -30.1809
   -30.1809 -30.1809 -30.1808 -30.1808 -30.1808 -30.1808 -30.1808 -30.1807
   -30.1807 -30.1807 -30.1806 -30.1806 -30.1806 -30.1805 -30.1805 -30.1804
   -30.1238 -30.1238 -30.1237 -30.1237 -30.1237 -30.1237 -30.1236 -30.1236
   -30.1236 -30.1235 -30.1234 -30.1234 -30.1233 -30.1233 -30.1231 -30.1231
   -30.1231 -30.1231 -30.1231 -30.1230 -30.1230 -30.1229 -30.1229 -30.1229
   -30.0495 -30.0495 -30.0494 -30.0494 -30.0493 -30.0492 -30.0492 -30.0491
   -30.0490 -30.0489 -30.0489 -30.0487 -30.0486 -30.0486 -30.0486 -30.0486
    14.2236  14.2241  14.2241  14.2243  14.2244  14.2248  14.2248  14.2251
    15.0666  15.0667  15.0667  15.0667  15.0667  15.0668  15.0668  15.0668
    15.0669  15.0669  15.0670  15.0670  15.0670  15.0672  15.0672  15.0672
    15.0673  15.0673  15.0674  15.0674  15.0674  15.0674  15.0675  15.0675
    15.8369  15.8370  15.8372  15.8373  15.8373  15.8374  15.8374  15.8374
    15.8374  15.8375  15.8376  15.8376  15.8377  15.8377  15.8377  15.8378
    15.8379  15.8381  15.8381  15.8381  15.8381  15.8382  15.8382  15.8383
    16.7932  16.7934  16.7934  16.7934  16.7934  16.7935  16.7935  16.7935
    17.1093  17.1094  17.1094  17.1094  17.1095  17.1095  17.1095  17.1096
    17.1097  17.1097  17.1098  17.1098  17.1099  17.1099  17.1099  17.1100
    17.2983  17.2984  17.2984  17.2985  17.2986  17.2986  17.2986  17.2987
    17.2987  17.2987  17.2987  17.2988  17.2988  17.2988  17.2988  17.2989
    17.2989  17.2990  17.2990  17.2990  17.2990  17.2991  17.2991  17.2993
    18.0349  18.0349  18.0350  18.0350  18.0351  18.0352  18.0352  18.0352
    18.0353  18.0353  18.0354  18.0354  18.0354  18.0354  18.0355  18.0355
    18.0356  18.0357  18.0357  18.0357  18.0357  18.0357  18.0358  18.0360
    18.5545  18.5547  18.5547  18.5548  18.5548  18.5549  18.5549  18.5550
    18.5551  18.5551  18.5552  18.5552  18.5553  18.5554  18.5555  18.5555
    19.6765  19.6766  19.6766  19.6767  19.6767  19.6768  19.6768  19.6768
    19.6769  19.6769  19.6769  19.6769  19.6770  19.6770  19.6770  19.6770
    19.6770  19.6771  19.6771  19.6772  19.6772  19.6773  19.6773  19.6774
    23.2894  23.2894  23.2895  23.2896  23.2897  23.2897  23.2899  23.2899
    23.2899  23.2899  23.2900  23.2900  23.2901  23.2901  23.2902  23.2902
    23.2903  23.2903  23.2903  23.2904  23.2905  23.2906  23.2906  23.2906
    28.7942  28.7943  28.7943  28.7944  28.7945  28.7945  28.7945  28.7945
    28.7946  28.7947  28.7947  28.7948  28.7950  28.7950  28.7951  28.7951
    28.7951  28.7951  28.7953  28.7953  28.7953  28.7954  28.7954  28.7954
    34.0543  34.0545

     the Fermi energy is    19.6941 ev

!    total energy              =  -16384.94802692 Ry
     Harris-Foulkes estimate   =  -16384.94801459 Ry
     estimated scf accuracy    <       0.00000086 Ry

     total all-electron energy =   -322945.801734 Ry

     The total energy is the sum of the following terms:

     one-electron contribution =   -2434.31321985 Ry
     hartree contribution      =    1642.55663003 Ry
     xc contribution           =    -986.88245614 Ry
     ewald contribution        =   -6438.89369923 Ry
     one-center paw contrib.   =   -8167.44329594 Ry
     smearing contrib. (-TS)   =       0.02801420 Ry

     convergence has been achieved in  10 iterations

     Forces acting on atoms (cartesian axes, Ry/au):

     atom    1 type  1   force =     0.00000000    0.00000000    0.00000000
     atom    2 type  1   force =     0.00005727    0.00005727   -0.00000000
     atom    3 type  1   force =     0.00005727   -0.00000000    0.00005727
     atom    4 type  1   force =    -0.00000000    0.00005727    0.00005727
     atom    5 type  1   force =     0.00000000    0.00000000    0.00000000
     atom    6 type  1   force =     0.00014211    0.00014211    0.00000000
     atom    7 type  1   force =     0.00005727   -0.00000000   -0.00005727
     atom    8 type  1   force =     0.00000000    0.00005727   -0.00005727
     atom    9 type  1   force =     0.00000000    0.00000000   -0.00000000
     atom   10 type  1   force =     0.00005727   -0.00005727   -0.00000000
     atom   11 type  1   force =     0.00014211    0.00000000    0.00014211
     atom   12 type  1   force =     0.00000000   -0.00005727    0.00005727
     atom   13 type  1   force =     0.00000000    0.00000000   -0.00000000
     atom   14 type  1   force =     0.00014211   -0.00014211   -0.00000000
     atom   15 type  1   force =     0.00014211    0.00000000   -0.00014211
     atom   16 type  1   force =    -0.00000000   -0.00005727   -0.00005727
     atom   17 type  1   force =     0.00000000    0.00000000   -0.00000000
     atom   18 type  1   force =    -0.00005727    0.00005727    0.00000000
     atom   19 type  1   force =    -0.00005727    0.00000000    0.00005727
     atom   20 type  1   force =     0.00000000    0.00014211    0.00014211
     atom   21 type  1   force =     0.00000000    0.00000000   -0.00000000
     atom   22 type  1   force =    -0.00014211    0.00014211    0.00000000
     atom   23 type  1   force =    -0.00005727    0.00000000   -0.00005727
     atom   24 type  1   force =     0.00000000    0.00014211   -0.00014211
     atom   25 type  1   force =     0.00000000    0.00000000    0.00000000
     atom   26 type  1   force =    -0.00005727   -0.00005727   -0.00000000
     atom   27 type  1   force =    -0.00014211    0.00000000    0.00014211
     atom   28 type  1   force =    -0.00000000   -0.00014211    0.00014211
     atom   29 type  1   force =     0.00000000    0.00000000    0.00000000
     atom   30 type  1   force =    -0.00014211   -0.00014211   -0.00000000
     atom   31 type  1   force =    -0.00014211   -0.00000000   -0.00014211
     atom   32 type  1   force =    -0.00000000   -0.00014211   -0.00014211

     Total force =     0.000751     Total SCF correction =     0.005644
     SCF correction compared to forces is large: reduce conv_thr to get better values

     Computing stress (Cartesian axis) and pressure

          total   stress  (Ry/bohr**3)                   (kbar)     P=   29.05
   0.00019750   0.00000000   0.00000000         29.05      0.00      0.00
   0.00000000   0.00019750   0.00000000          0.00     29.05      0.00
   0.00000000   0.00000000   0.00019750          0.00      0.00     29.05

     Writing output data file jpBpsMVKWMTfiJTx.save/

     General routines

     Parallel routines

   This run was terminated on:   8: 7:20  11Nov2020

   JOB DONE.