     Program PWSCF v.6.3 starts on 11Nov2020 at  9:59:15

     R & G space division:  proc/nbgrp/npool/nimage =      20
     Reading input from wd/ec/ec_1_002.in
Warning: card &IONS ignored
Warning: card ION_DYNAMICS = 'BFGS', ignored
Warning: card / ignored
Warning: card &CELL ignored
Warning: card CELL_DYNAMICS = 'BFGS', ignored
Warning: card CELL_FACTOR = 2.0, ignored
Warning: card PRESS = 0.0, ignored
Warning: card / ignored

     Current dimensions of program PWSCF are:
     Max number of different atomic species (ntypx) = 10
     Max number of k-points (npk) =  40000
     Max angular momentum in pseudopotentials (lmaxx) =  3
               file Pd.pbe-spn-kjpaw_psl.1.0.0.UPF: wavefunction(s)  4S 5S 4D renormalized

     Subspace diagonalization in iterative solution of the eigenvalue problem:
     a serial algorithm will be used

     bravais-lattice index     =            0
     lattice parameter (alat)  =      14.8394  a.u.
     unit-cell volume          =    3270.4877 (a.u.)^3
     number of atoms/cell      =           32
     number of atomic types    =            1
     number of electrons       =       576.00
     number of Kohn-Sham states=          346
     kinetic-energy cutoff     =      71.0000  Ry
     charge density cutoff     =     430.0000  Ry
     convergence threshold     =      1.0E-06
     mixing beta               =       0.1000
     number of iterations used =           10  plain     mixing
     Exchange-correlation      = SLA PW PBX PBC ( 1  4  3  4 0 0)

     celldm(1)=  14.839420  celldm(2)=   0.000000  celldm(3)=   0.000000
     celldm(4)=   0.000000  celldm(5)=   0.000000  celldm(6)=   0.000000

     crystal axes: (cart. coord. in units of alat)
               a(1) = (   1.000833   0.000000   0.000000 )
               a(2) = (   0.000000   1.000000   0.000000 )
               a(3) = (   0.000000   0.000000   1.000000 )

     reciprocal axes: (cart. coord. in units 2 pi/alat)
               b(1) = (  0.999167  0.000000  0.000000 )
               b(2) = (  0.000000  1.000000  0.000000 )
               b(3) = (  0.000000  0.000000  1.000000 )

     PseudoPot. # 1 for Pd read from file:
     /rds/homes/b/bxp912/pp/Pd.pbe-spn-kjpaw_psl.1.0.0.UPF
     MD5 check sum: 790f2ebce206edfd9790dcb9844eca51
     Pseudo is Projector augmented-wave + core cor, Zval = 18.0
     Generated using "atomic" code by A. Dal Corso v.6.3
     Shape of augmentation charge: PSQ
     Using radial grid of 1235 points,  6 beta functions with:
                l(1) =   0
                l(2) =   0
                l(3) =   1
                l(4) =   1
                l(5) =   2
                l(6) =   2
     Q(r) pseudized with 0 coefficients

     atomic species   valence    mass     pseudopotential
        Pd            18.00   106.42000     Pd( 1.00)

     16 Sym. Ops., with inversion, found

   Cartesian axes

     site n.     atom                  positions (alat units)
         1           Pd  tau(   1) = (   0.0000000   0.0000000   0.0000000  )
         2           Pd  tau(   2) = (   0.2502128   0.2500045   0.0000000  )
         3           Pd  tau(   3) = (   0.2502128   0.0000000   0.2500040  )
         4           Pd  tau(   4) = (   0.0000000   0.2500045   0.2500040  )
         5           Pd  tau(   5) = (   0.0000000   0.0000000   0.4999990  )
         6           Pd  tau(   6) = (   0.2502199   0.2500116   0.4999990  )
         7           Pd  tau(   7) = (   0.2502128   0.0000000   0.7499950  )
         8           Pd  tau(   8) = (   0.0000000   0.2500045   0.7499950  )
         9           Pd  tau(   9) = (   0.0000000   0.4999998   0.0000000  )
        10           Pd  tau(  10) = (   0.2502128   0.7499952   0.0000000  )
        11           Pd  tau(  11) = (   0.2502199   0.4999998   0.2500109  )
        12           Pd  tau(  12) = (   0.0000000   0.7499952   0.2500040  )
        13           Pd  tau(  13) = (   0.0000000   0.4999998   0.4999990  )
        14           Pd  tau(  14) = (   0.2502199   0.7499881   0.4999990  )
        15           Pd  tau(  15) = (   0.2502199   0.4999998   0.7499881  )
        16           Pd  tau(  16) = (   0.0000000   0.7499952   0.7499950  )
        17           Pd  tau(  17) = (   0.5004165   0.0000000   0.0000000  )
        18           Pd  tau(  18) = (   0.7506202   0.2500045   0.0000000  )
        19           Pd  tau(  19) = (   0.7506202   0.0000000   0.2500040  )
        20           Pd  tau(  20) = (   0.5004165   0.2500116   0.2500109  )
        21           Pd  tau(  21) = (   0.5004165   0.0000000   0.4999990  )
        22           Pd  tau(  22) = (   0.7506131   0.2500116   0.4999990  )
        23           Pd  tau(  23) = (   0.7506202   0.0000000   0.7499950  )
        24           Pd  tau(  24) = (   0.5004165   0.2500116   0.7499881  )
        25           Pd  tau(  25) = (   0.5004165   0.4999998   0.0000000  )
        26           Pd  tau(  26) = (   0.7506202   0.7499952   0.0000000  )
        27           Pd  tau(  27) = (   0.7506131   0.4999998   0.2500109  )
        28           Pd  tau(  28) = (   0.5004165   0.7499881   0.2500109  )
        29           Pd  tau(  29) = (   0.5004165   0.4999998   0.4999990  )
        30           Pd  tau(  30) = (   0.7506131   0.7499881   0.4999990  )
        31           Pd  tau(  31) = (   0.7506131   0.4999998   0.7499881  )
        32           Pd  tau(  32) = (   0.5004165   0.7499881   0.7499881  )

     number of k points=    75  Marzari-Vanderbilt smearing, width (Ry)=  0.0400
                       cart. coord. in units 2pi/alat
        k(    1) = (   0.0555093   0.0555556   0.0555556), wk =   0.0219479
        k(    2) = (   0.0555093   0.0555556   0.1666667), wk =   0.0438957
        k(    3) = (   0.0555093   0.0555556   0.2777778), wk =   0.0438957
        k(    4) = (   0.0555093   0.0555556   0.3888889), wk =   0.0438957
        k(    5) = (   0.0555093   0.0555556  -0.5000000), wk =   0.0219479
        k(    6) = (   0.0555093   0.1666667   0.1666667), wk =   0.0219479
        k(    7) = (   0.0555093   0.1666667   0.2777778), wk =   0.0438957
        k(    8) = (   0.0555093   0.1666667   0.3888889), wk =   0.0438957
        k(    9) = (   0.0555093   0.1666667  -0.5000000), wk =   0.0219479
        k(   10) = (   0.0555093   0.2777778   0.2777778), wk =   0.0219479
        k(   11) = (   0.0555093   0.2777778   0.3888889), wk =   0.0438957
        k(   12) = (   0.0555093   0.2777778  -0.5000000), wk =   0.0219479
        k(   13) = (   0.0555093   0.3888889   0.3888889), wk =   0.0219479
        k(   14) = (   0.0555093   0.3888889  -0.5000000), wk =   0.0219479
        k(   15) = (   0.0555093  -0.5000000  -0.5000000), wk =   0.0054870
        k(   16) = (   0.1665279   0.0555556   0.0555556), wk =   0.0219479
        k(   17) = (   0.1665279   0.0555556   0.1666667), wk =   0.0438957
        k(   18) = (   0.1665279   0.0555556   0.2777778), wk =   0.0438957
        k(   19) = (   0.1665279   0.0555556   0.3888889), wk =   0.0438957
        k(   20) = (   0.1665279   0.0555556  -0.5000000), wk =   0.0219479
        k(   21) = (   0.1665279   0.1666667   0.1666667), wk =   0.0219479
        k(   22) = (   0.1665279   0.1666667   0.2777778), wk =   0.0438957
        k(   23) = (   0.1665279   0.1666667   0.3888889), wk =   0.0438957
        k(   24) = (   0.1665279   0.1666667  -0.5000000), wk =   0.0219479
        k(   25) = (   0.1665279   0.2777778   0.2777778), wk =   0.0219479
        k(   26) = (   0.1665279   0.2777778   0.3888889), wk =   0.0438957
        k(   27) = (   0.1665279   0.2777778  -0.5000000), wk =   0.0219479
        k(   28) = (   0.1665279   0.3888889   0.3888889), wk =   0.0219479
        k(   29) = (   0.1665279   0.3888889  -0.5000000), wk =   0.0219479
        k(   30) = (   0.1665279  -0.5000000  -0.5000000), wk =   0.0054870
        k(   31) = (   0.2775465   0.0555556   0.0555556), wk =   0.0219479
        k(   32) = (   0.2775465   0.0555556   0.1666667), wk =   0.0438957
        k(   33) = (   0.2775465   0.0555556   0.2777778), wk =   0.0438957
        k(   34) = (   0.2775465   0.0555556   0.3888889), wk =   0.0438957
        k(   35) = (   0.2775465   0.0555556  -0.5000000), wk =   0.0219479
        k(   36) = (   0.2775465   0.1666667   0.1666667), wk =   0.0219479
        k(   37) = (   0.2775465   0.1666667   0.2777778), wk =   0.0438957
        k(   38) = (   0.2775465   0.1666667   0.3888889), wk =   0.0438957
        k(   39) = (   0.2775465   0.1666667  -0.5000000), wk =   0.0219479
        k(   40) = (   0.2775465   0.2777778   0.2777778), wk =   0.0219479
        k(   41) = (   0.2775465   0.2777778   0.3888889), wk =   0.0438957
        k(   42) = (   0.2775465   0.2777778  -0.5000000), wk =   0.0219479
        k(   43) = (   0.2775465   0.3888889   0.3888889), wk =   0.0219479
        k(   44) = (   0.2775465   0.3888889  -0.5000000), wk =   0.0219479
        k(   45) = (   0.2775465  -0.5000000  -0.5000000), wk =   0.0054870
        k(   46) = (   0.3885651   0.0555556   0.0555556), wk =   0.0219479
        k(   47) = (   0.3885651   0.0555556   0.1666667), wk =   0.0438957
        k(   48) = (   0.3885651   0.0555556   0.2777778), wk =   0.0438957
        k(   49) = (   0.3885651   0.0555556   0.3888889), wk =   0.0438957
        k(   50) = (   0.3885651   0.0555556  -0.5000000), wk =   0.0219479
        k(   51) = (   0.3885651   0.1666667   0.1666667), wk =   0.0219479
        k(   52) = (   0.3885651   0.1666667   0.2777778), wk =   0.0438957
        k(   53) = (   0.3885651   0.1666667   0.3888889), wk =   0.0438957
        k(   54) = (   0.3885651   0.1666667  -0.5000000), wk =   0.0219479
        k(   55) = (   0.3885651   0.2777778   0.2777778), wk =   0.0219479
        k(   56) = (   0.3885651   0.2777778   0.3888889), wk =   0.0438957
        k(   57) = (   0.3885651   0.2777778  -0.5000000), wk =   0.0219479
        k(   58) = (   0.3885651   0.3888889   0.3888889), wk =   0.0219479
        k(   59) = (   0.3885651   0.3888889  -0.5000000), wk =   0.0219479
        k(   60) = (   0.3885651  -0.5000000  -0.5000000), wk =   0.0054870
        k(   61) = (  -0.4995837   0.0555556   0.0555556), wk =   0.0109739
        k(   62) = (  -0.4995837   0.0555556   0.1666667), wk =   0.0219479
        k(   63) = (  -0.4995837   0.0555556   0.2777778), wk =   0.0219479
        k(   64) = (  -0.4995837   0.0555556   0.3888889), wk =   0.0219479
        k(   65) = (  -0.4995837   0.0555556  -0.5000000), wk =   0.0109739
        k(   66) = (  -0.4995837   0.1666667   0.1666667), wk =   0.0109739
        k(   67) = (  -0.4995837   0.1666667   0.2777778), wk =   0.0219479
        k(   68) = (  -0.4995837   0.1666667   0.3888889), wk =   0.0219479
        k(   69) = (  -0.4995837   0.1666667  -0.5000000), wk =   0.0109739
        k(   70) = (  -0.4995837   0.2777778   0.2777778), wk =   0.0109739
        k(   71) = (  -0.4995837   0.2777778   0.3888889), wk =   0.0219479
        k(   72) = (  -0.4995837   0.2777778  -0.5000000), wk =   0.0109739
        k(   73) = (  -0.4995837   0.3888889   0.3888889), wk =   0.0109739
        k(   74) = (  -0.4995837   0.3888889  -0.5000000), wk =   0.0109739
        k(   75) = (  -0.4995837  -0.5000000  -0.5000000), wk =   0.0027435

     Check: negative/imaginary core charge=   -0.000002    0.000000

     Initial potential from superposition of free atoms

     starting charge  575.98776, renormalised to  576.00000
     Starting wfcs are  320 randomized atomic wfcs +   26 random wfcs
     Checking if some PAW data can be deallocated...

     Self-consistent Calculation

     iteration #  1     ecut=    71.00 Ry     beta= 0.10
     Davidson diagonalization with overlap
     ethr =  1.00E-02,  avg # of iterations =  3.1

     Threshold (ethr) on eigenvalues was too large:
     Diagonalizing with lowered threshold

     Davidson diagonalization with overlap
     ethr =  8.35E-05,  avg # of iterations =  3.1

     total energy              =  -16385.02072541 Ry
     Harris-Foulkes estimate   =  -16385.08841122 Ry
     estimated scf accuracy    <       0.47517930 Ry

[...]

     total energy              =  -16384.95842152 Ry
     Harris-Foulkes estimate   =  -16384.95841873 Ry
     estimated scf accuracy    <       0.00000342 Ry

     iteration # 11     ecut=    71.00 Ry     beta= 0.10
     Davidson diagonalization with overlap
     ethr =  5.93E-10,  avg # of iterations =  1.1

     End of self-consistent calculation

          k = 0.0555 0.0556 0.0556 ( 33024 PWs)   bands (ev):

   -64.8890 -64.8601 -64.8600 -64.8600 -64.8546 -64.8544 -64.8544 -64.8443
   -64.8442 -64.8441 -64.8419 -64.8415 -64.8414 -64.8413 -64.8412 -64.8411
   -64.8411 -64.8409 -64.8408 -64.8403 -64.8386 -64.8385 -64.8385 -64.8262
   -64.8256 -64.8256 -64.8254 -64.8253 -64.8253 -64.8252 -64.8251 -64.8247
   -30.7730 -30.7730 -30.7730 -30.7712 -30.7526 -30.7526 -30.7524 -30.6753
   -30.6748 -30.6747 -30.6710 -30.6710 -30.6704 -30.6704 -30.6704 -30.6703
   -30.6632 -30.6626 -30.6626 -30.6578 -30.6578 -30.6574 -30.6574 -30.6573
   -30.6573 -30.6393 -30.6393 -30.6388 -30.6387 -30.6387 -30.6387 -30.5980
   -30.5980 -30.5978 -30.5736 -30.5736 -30.5734 -30.5676 -30.5676 -30.5674
   -30.5582 -30.5582 -30.5582 -30.5581 -30.5580 -30.5579 -30.5432 -30.5432
   -30.5430 -30.5428 -30.5424 -30.5423 -30.5423 -30.5420 -30.5420 -30.5419
   -30.5418 -30.5412 -30.5402 -30.5402 -30.5397 -30.4771 -30.4771 -30.4767
   -30.4766 -30.4766 -30.4765 -30.4647 -30.4647 -30.4643 -30.4643 -30.4643
   -30.4642 -30.4610 -30.4610 -30.4606 -30.4570 -30.4565 -30.4564 -30.4559
   -30.4559 -30.4558 -30.4557 -30.4556 -30.4555 -30.4554 -30.4553 -30.4550
   -30.4545 -30.4541 -30.4488 -30.4487 -30.4485 -30.4031 -30.4008 -30.4007
    12.2789  14.0361  14.0361  14.0362  14.1043  14.1180  14.1180  14.1180
    14.3055  14.3083  14.3084  14.3110  14.3110  14.3110  14.5007  14.5034
    14.5035  15.0465  15.0465  15.0492  15.0493  15.0493  15.0494  15.2002
    15.2029  15.2030  15.3515  15.3517  15.3517  15.3861  15.3895  15.3896
    15.4339  15.4339  15.4343  15.4344  15.4344  15.4345  15.4357  15.4365
    15.4365  15.7766  15.7766  15.7783  15.7783  15.7789  15.7790  15.8832
    15.8860  15.8861  15.9051  15.9051  15.9079  15.9080  15.9083  15.9083
    15.9618  15.9649  15.9650  16.1318  16.1318  16.1338  16.1338  16.1346
    16.1347  16.2383  16.2384  16.2401  16.2428  16.2429  16.2429  16.2430
    16.2441  16.2441  16.3507  16.3508  16.3511  16.4117  16.4167  16.4167
    16.4326  16.4397  16.4453  16.4453  16.4503  16.4640  16.4824  16.4866
    17.2776  17.2818  17.2819  17.3404  17.3405  17.3423  17.4130  17.4131
    17.4132  17.4133  17.4147  17.4148  17.4192  17.4193  17.4206  17.4648
    17.4694  17.4694  17.5700  17.5700  17.5731  17.6892  17.6893  17.6901
    17.8137  17.8138  17.8166  17.8713  17.8714  17.8738  17.9449  17.9449
    17.9456  17.9457  17.9458  17.9458  17.9643  17.9644  17.9647  18.0084
    18.0163  18.0192  18.0192  18.0193  18.0194  18.0214  18.0215  18.1283
    18.1284  18.1305  18.5149  18.5149  18.5184  18.6167  18.6167  18.6197
    18.9996  18.9996  19.0019  19.1243  19.1243  19.1247  19.1497  19.1529
    19.1698  19.1723  19.1723  19.4009  19.4015  19.4016  19.4541  19.4541
    19.4542  19.4543  19.4584  19.4584  19.4584  19.4589  19.4590  20.1247
    20.4305  20.4306  20.4306  20.9521  20.9522  20.9569  21.4616  21.4617
    21.4619  21.4620  21.4675  21.4675  21.9906  21.9906  21.9971  22.5645
    22.5803  22.5803  26.3255  26.3256  26.3257  26.4824  27.4690  27.4690
    27.4762  27.4762  27.4834  27.4835  28.1612  28.1612  28.1680  28.1680
    28.1757  28.1759  29.5755  29.5755  29.5785  29.5785  29.5854  29.5855
    29.7290  29.7510  29.7510  30.6940  30.7353  30.7354  30.7378  30.7379
    30.7434  30.7435

[...]

          k = 0.3886-0.5000-0.5000 ( 33056 PWs)   bands (ev):

[...]

          k =-0.4996 0.0556 0.0556 ( 33046 PWs)   bands (ev):

[...]

          k =-0.4996-0.5000-0.5000 ( 32968 PWs)   bands (ev):

   -64.8660 -64.8657 -64.8656 -64.8655 -64.8652 -64.8650 -64.8649 -64.8647
   -64.8343 -64.8341 -64.8340 -64.8339 -64.8339 -64.8337 -64.8336 -64.8335
   -64.8335 -64.8334 -64.8334 -64.8333 -64.8332 -64.8331 -64.8331 -64.8330
   -64.8329 -64.8329 -64.8328 -64.8327 -64.8327 -64.8325 -64.8324 -64.8322
   -30.7119 -30.7119 -30.7118 -30.7118 -30.7117 -30.7116 -30.7115 -30.7115
   -30.7114 -30.7113 -30.7113 -30.7113 -30.7113 -30.7112 -30.7112 -30.7111
   -30.7111 -30.7110 -30.7109 -30.7109 -30.7106 -30.7106 -30.7105 -30.7105
   -30.5893 -30.5892 -30.5892 -30.5891 -30.5890 -30.5889 -30.5889 -30.5888
   -30.5523 -30.5522 -30.5522 -30.5521 -30.5521 -30.5520 -30.5520 -30.5520
   -30.5519 -30.5519 -30.5519 -30.5519 -30.5519 -30.5518 -30.5518 -30.5518
   -30.5518 -30.5518 -30.5517 -30.5517 -30.5517 -30.5516 -30.5516 -30.5515
   -30.4983 -30.4983 -30.4983 -30.4983 -30.4981 -30.4981 -30.4981 -30.4981
   -30.4979 -30.4978 -30.4978 -30.4978 -30.4976 -30.4975 -30.4975 -30.4975
   -30.4975 -30.4974 -30.4974 -30.4974 -30.4973 -30.4973 -30.4973 -30.4972
   -30.4280 -30.4280 -30.4279 -30.4279 -30.4277 -30.4277 -30.4275 -30.4274
   -30.4274 -30.4273 -30.4273 -30.4272 -30.4271 -30.4271 -30.4271 -30.4271
    13.9124  13.9127  13.9129  13.9131  13.9131  13.9134  13.9136  13.9138
    14.7609  14.7610  14.7611  14.7611  14.7612  14.7612  14.7613  14.7613
    14.7613  14.7613  14.7614  14.7614  14.7615  14.7615  14.7616  14.7616
    14.7618  14.7619  14.7619  14.7620  14.7620  14.7620  14.7621  14.7621
    15.5165  15.5165  15.5167  15.5168  15.5168  15.5169  15.5169  15.5171
    15.5172  15.5173  15.5173  15.5173  15.5174  15.5175  15.5176  15.5176
    15.5176  15.5176  15.5177  15.5177  15.5179  15.5179  15.5180  15.5182
    16.4475  16.4477  16.4477  16.4477  16.4477  16.4478  16.4478  16.4478
    16.7525  16.7526  16.7526  16.7527  16.7527  16.7528  16.7528  16.7529
    16.7591  16.7592  16.7593  16.7593  16.7594  16.7595  16.7595  16.7596
    16.9385  16.9387  16.9387  16.9388  16.9388  16.9389  16.9389  16.9391
    16.9421  16.9423  16.9423  16.9424  16.9424  16.9425  16.9425  16.9425
    16.9426  16.9426  16.9427  16.9427  16.9427  16.9428  16.9429  16.9430
    17.6579  17.6580  17.6581  17.6581  17.6582  17.6582  17.6582  17.6583
    17.6583  17.6584  17.6585  17.6585  17.6586  17.6586  17.6586  17.6587
    17.6613  17.6613  17.6614  17.6615  17.6617  17.6618  17.6619  17.6620
    18.1632  18.1634  18.1634  18.1635  18.1636  18.1638  18.1638  18.1640
    18.1654  18.1655  18.1656  18.1656  18.1659  18.1661  18.1661  18.1662
    19.2547  19.2547  19.2548  19.2549  19.2550  19.2550  19.2551  19.2552
    19.2560  19.2560  19.2561  19.2561  19.2561  19.2561  19.2561  19.2562
    19.2562  19.2563  19.2563  19.2564  19.2564  19.2564  19.2564  19.2564
    22.8250  22.8252  22.8254  22.8255  22.8257  22.8258  22.8261  22.8261
    22.8319  22.8320  22.8321  22.8322  22.8323  22.8323  22.8324  22.8324
    22.8326  22.8326  22.8327  22.8327  22.8328  22.8329  22.8329  22.8330
    28.2699  28.2700  28.2701  28.2701  28.2702  28.2703  28.2704  28.2705
    28.2705  28.2706  28.2707  28.2708  28.2709  28.2710  28.2710  28.2710
    28.2779  28.2781  28.2781  28.2782  28.2783  28.2783  28.2784  28.2785
    33.5022  33.5023

     the Fermi energy is    19.2769 ev

!    total energy              =  -16384.95843293 Ry
     Harris-Foulkes estimate   =  -16384.95842179 Ry
     estimated scf accuracy    <       0.00000049 Ry

     total all-electron energy =   -322945.812140 Ry

     The total energy is the sum of the following terms:

     one-electron contribution =   -2487.25909171 Ry
     hartree contribution      =    1661.12094712 Ry
     xc contribution           =    -986.50718014 Ry
     ewald contribution        =   -6404.92051140 Ry
     one-center paw contrib.   =   -8167.42572340 Ry
     smearing contrib. (-TS)   =       0.03312660 Ry

     convergence has been achieved in  11 iterations

     Forces acting on atoms (cartesian axes, Ry/au):

     atom    1 type  1   force =     0.00000000    0.00000000    0.00000000
     atom    2 type  1   force =     0.00000464    0.00007585   -0.00000000
     atom    3 type  1   force =     0.00000464   -0.00000000    0.00007585
     atom    4 type  1   force =     0.00000000    0.00005432    0.00005432
     atom    5 type  1   force =     0.00000000    0.00000000    0.00000000
     atom    6 type  1   force =     0.00006086    0.00010201    0.00000000
     atom    7 type  1   force =     0.00000464    0.00000000   -0.00007585
     atom    8 type  1   force =     0.00000000    0.00005432   -0.00005432
     atom    9 type  1   force =     0.00000000    0.00000000    0.00000000
     atom   10 type  1   force =     0.00000464   -0.00007585    0.00000000
     atom   11 type  1   force =     0.00006086    0.00000000    0.00010201
     atom   12 type  1   force =     0.00000000   -0.00005432    0.00005432
     atom   13 type  1   force =     0.00000000    0.00000000    0.00000000
     atom   14 type  1   force =     0.00006086   -0.00010201   -0.00000000
     atom   15 type  1   force =     0.00006086    0.00000000   -0.00010201
     atom   16 type  1   force =     0.00000000   -0.00005432   -0.00005432
     atom   17 type  1   force =     0.00000000    0.00000000    0.00000000
     atom   18 type  1   force =    -0.00000464    0.00007585   -0.00000000
     atom   19 type  1   force =    -0.00000464    0.00000000    0.00007585
     atom   20 type  1   force =     0.00000000    0.00013542    0.00013542
     atom   21 type  1   force =     0.00000000    0.00000000    0.00000000
     atom   22 type  1   force =    -0.00006086    0.00010201   -0.00000000
     atom   23 type  1   force =    -0.00000464    0.00000000   -0.00007585
     atom   24 type  1   force =     0.00000000    0.00013542   -0.00013542
     atom   25 type  1   force =     0.00000000    0.00000000   -0.00000000
     atom   26 type  1   force =    -0.00000464   -0.00007585   -0.00000000
     atom   27 type  1   force =    -0.00006086    0.00000000    0.00010201
     atom   28 type  1   force =     0.00000000   -0.00013542    0.00013542
     atom   29 type  1   force =     0.00000000    0.00000000    0.00000000
     atom   30 type  1   force =    -0.00006086   -0.00010201    0.00000000
     atom   31 type  1   force =    -0.00006086    0.00000000   -0.00010201
     atom   32 type  1   force =     0.00000000   -0.00013542   -0.00013542

     Total force =     0.000574     Total SCF correction =     0.004842
     SCF correction compared to forces is large: reduce conv_thr to get better values

     Computing stress (Cartesian axis) and pressure

          total   stress  (Ry/bohr**3)                   (kbar)     P=   -0.21
  -0.00000442   0.00000000   0.00000000         -0.65      0.00      0.00
   0.00000000   0.00000011   0.00000000          0.00      0.02      0.00
   0.00000000   0.00000000   0.00000011          0.00      0.00      0.02

     Writing output data file BmmyuXiDymOFYKYw.save/

     General routines

     Parallel routines

   This run was terminated on:  10:38:30  11Nov2020

   JOB DONE.