     Program PWSCF v.6.3 starts on 11Nov2020 at 13:18: 2

     R & G space division:  proc/nbgrp/npool/nimage =      20
     Reading input from wd/ec/ec_1_007.in
Warning: card &IONS ignored
Warning: card ION_DYNAMICS = 'BFGS', ignored
Warning: card / ignored
Warning: card &CELL ignored
Warning: card CELL_DYNAMICS = 'BFGS', ignored
Warning: card CELL_FACTOR = 2.0, ignored
Warning: card PRESS = 0.0, ignored
Warning: card / ignored

     Current dimensions of program PWSCF are:
     Max number of different atomic species (ntypx) = 10
     Max number of k-points (npk) =  40000
     Max angular momentum in pseudopotentials (lmaxx) =  3
               file Pd.pbe-spn-kjpaw_psl.1.0.0.UPF: wavefunction(s)  4S 5S 4D renormalized

     Subspace diagonalization in iterative solution of the eigenvalue problem:
     a serial algorithm will be used

     bravais-lattice index     =            0
     lattice parameter (alat)  =      14.8394  a.u.
     unit-cell volume          =    3284.1034 (a.u.)^3
     number of atoms/cell      =           32
     number of atomic types    =            1
     number of electrons       =       576.00
     number of Kohn-Sham states=          346
     kinetic-energy cutoff     =      71.0000  Ry
     charge density cutoff     =     430.0000  Ry
     convergence threshold     =      1.0E-06
     mixing beta               =       0.1000
     number of iterations used =           10  plain     mixing
     Exchange-correlation      = SLA PW PBX PBC ( 1  4  3  4 0 0)

     celldm(1)=  14.839420  celldm(2)=   0.000000  celldm(3)=   0.000000
     celldm(4)=   0.000000  celldm(5)=   0.000000  celldm(6)=   0.000000

     crystal axes: (cart. coord. in units of alat)
               a(1) = (   1.005000   0.000000   0.000000 )
               a(2) = (   0.000000   1.000000   0.000000 )
               a(3) = (   0.000000   0.000000   1.000000 )

     reciprocal axes: (cart. coord. in units 2 pi/alat)
               b(1) = (  0.995025  0.000000  0.000000 )
               b(2) = (  0.000000  1.000000  0.000000 )
               b(3) = (  0.000000  0.000000  1.000000 )

     PseudoPot. # 1 for Pd read from file:
     /rds/homes/b/bxp912/pp/Pd.pbe-spn-kjpaw_psl.1.0.0.UPF
     MD5 check sum: 790f2ebce206edfd9790dcb9844eca51
     Pseudo is Projector augmented-wave + core cor, Zval = 18.0
     Generated using "atomic" code by A. Dal Corso v.6.3
     Shape of augmentation charge: PSQ
     Using radial grid of 1235 points,  6 beta functions with:
                l(1) =   0
                l(2) =   0
                l(3) =   1
                l(4) =   1
                l(5) =   2
                l(6) =   2
     Q(r) pseudized with 0 coefficients

     atomic species   valence    mass     pseudopotential
        Pd            18.00   106.42000     Pd( 1.00)

     16 Sym. Ops., with inversion, found

   Cartesian axes

     site n.     atom                  positions (alat units)
         1           Pd  tau(   1) = (   0.0000000   0.0000000   0.0000000  )
         2           Pd  tau(   2) = (   0.2512545   0.2500045   0.0000000  )
         3           Pd  tau(   3) = (   0.2512545   0.0000000   0.2500040  )
         4           Pd  tau(   4) = (   0.0000000   0.2500045   0.2500040  )
         5           Pd  tau(   5) = (   0.0000000   0.0000000   0.4999990  )
         6           Pd  tau(   6) = (   0.2512617   0.2500116   0.4999990  )
         7           Pd  tau(   7) = (   0.2512545   0.0000000   0.7499950  )
         8           Pd  tau(   8) = (   0.0000000   0.2500045   0.7499950  )
         9           Pd  tau(   9) = (   0.0000000   0.4999998   0.0000000  )
        10           Pd  tau(  10) = (   0.2512545   0.7499952   0.0000000  )
        11           Pd  tau(  11) = (   0.2512617   0.4999998   0.2500109  )
        12           Pd  tau(  12) = (   0.0000000   0.7499952   0.2500040  )
        13           Pd  tau(  13) = (   0.0000000   0.4999998   0.4999990  )
        14           Pd  tau(  14) = (   0.2512617   0.7499881   0.4999990  )
        15           Pd  tau(  15) = (   0.2512617   0.4999998   0.7499881  )
        16           Pd  tau(  16) = (   0.0000000   0.7499952   0.7499950  )
        17           Pd  tau(  17) = (   0.5024998   0.0000000   0.0000000  )
        18           Pd  tau(  18) = (   0.7537452   0.2500045   0.0000000  )
        19           Pd  tau(  19) = (   0.7537452   0.0000000   0.2500040  )
        20           Pd  tau(  20) = (   0.5024998   0.2500116   0.2500109  )
        21           Pd  tau(  21) = (   0.5024998   0.0000000   0.4999990  )
        22           Pd  tau(  22) = (   0.7537380   0.2500116   0.4999990  )
        23           Pd  tau(  23) = (   0.7537452   0.0000000   0.7499950  )
        24           Pd  tau(  24) = (   0.5024998   0.2500116   0.7499881  )
        25           Pd  tau(  25) = (   0.5024998   0.4999998   0.0000000  )
        26           Pd  tau(  26) = (   0.7537452   0.7499952   0.0000000  )
        27           Pd  tau(  27) = (   0.7537380   0.4999998   0.2500109  )
        28           Pd  tau(  28) = (   0.5024998   0.7499881   0.2500109  )
        29           Pd  tau(  29) = (   0.5024998   0.4999998   0.4999990  )
        30           Pd  tau(  30) = (   0.7537380   0.7499881   0.4999990  )
        31           Pd  tau(  31) = (   0.7537380   0.4999998   0.7499881  )
        32           Pd  tau(  32) = (   0.5024998   0.7499881   0.7499881  )

     number of k points=    75  Marzari-Vanderbilt smearing, width (Ry)=  0.0400
                       cart. coord. in units 2pi/alat
        k(    1) = (   0.0552792   0.0555556   0.0555556), wk =   0.0219479
        k(    2) = (   0.0552792   0.0555556   0.1666667), wk =   0.0438957
        k(    3) = (   0.0552792   0.0555556   0.2777778), wk =   0.0438957
        k(    4) = (   0.0552792   0.0555556   0.3888889), wk =   0.0438957
        k(    5) = (   0.0552792   0.0555556  -0.5000000), wk =   0.0219479
        k(    6) = (   0.0552792   0.1666667   0.1666667), wk =   0.0219479
        k(    7) = (   0.0552792   0.1666667   0.2777778), wk =   0.0438957
        k(    8) = (   0.0552792   0.1666667   0.3888889), wk =   0.0438957
        k(    9) = (   0.0552792   0.1666667  -0.5000000), wk =   0.0219479
        k(   10) = (   0.0552792   0.2777778   0.2777778), wk =   0.0219479
        k(   11) = (   0.0552792   0.2777778   0.3888889), wk =   0.0438957
        k(   12) = (   0.0552792   0.2777778  -0.5000000), wk =   0.0219479
        k(   13) = (   0.0552792   0.3888889   0.3888889), wk =   0.0219479
        k(   14) = (   0.0552792   0.3888889  -0.5000000), wk =   0.0219479
        k(   15) = (   0.0552792  -0.5000000  -0.5000000), wk =   0.0054870
        k(   16) = (   0.1658375   0.0555556   0.0555556), wk =   0.0219479
        k(   17) = (   0.1658375   0.0555556   0.1666667), wk =   0.0438957
        k(   18) = (   0.1658375   0.0555556   0.2777778), wk =   0.0438957
        k(   19) = (   0.1658375   0.0555556   0.3888889), wk =   0.0438957
        k(   20) = (   0.1658375   0.0555556  -0.5000000), wk =   0.0219479
        k(   21) = (   0.1658375   0.1666667   0.1666667), wk =   0.0219479
        k(   22) = (   0.1658375   0.1666667   0.2777778), wk =   0.0438957
        k(   23) = (   0.1658375   0.1666667   0.3888889), wk =   0.0438957
        k(   24) = (   0.1658375   0.1666667  -0.5000000), wk =   0.0219479
        k(   25) = (   0.1658375   0.2777778   0.2777778), wk =   0.0219479
        k(   26) = (   0.1658375   0.2777778   0.3888889), wk =   0.0438957
        k(   27) = (   0.1658375   0.2777778  -0.5000000), wk =   0.0219479
        k(   28) = (   0.1658375   0.3888889   0.3888889), wk =   0.0219479
        k(   29) = (   0.1658375   0.3888889  -0.5000000), wk =   0.0219479
        k(   30) = (   0.1658375  -0.5000000  -0.5000000), wk =   0.0054870
        k(   31) = (   0.2763958   0.0555556   0.0555556), wk =   0.0219479
        k(   32) = (   0.2763958   0.0555556   0.1666667), wk =   0.0438957
        k(   33) = (   0.2763958   0.0555556   0.2777778), wk =   0.0438957
        k(   34) = (   0.2763958   0.0555556   0.3888889), wk =   0.0438957
        k(   35) = (   0.2763958   0.0555556  -0.5000000), wk =   0.0219479
        k(   36) = (   0.2763958   0.1666667   0.1666667), wk =   0.0219479
        k(   37) = (   0.2763958   0.1666667   0.2777778), wk =   0.0438957
        k(   38) = (   0.2763958   0.1666667   0.3888889), wk =   0.0438957
        k(   39) = (   0.2763958   0.1666667  -0.5000000), wk =   0.0219479
        k(   40) = (   0.2763958   0.2777778   0.2777778), wk =   0.0219479
        k(   41) = (   0.2763958   0.2777778   0.3888889), wk =   0.0438957
        k(   42) = (   0.2763958   0.2777778  -0.5000000), wk =   0.0219479
        k(   43) = (   0.2763958   0.3888889   0.3888889), wk =   0.0219479
        k(   44) = (   0.2763958   0.3888889  -0.5000000), wk =   0.0219479
        k(   45) = (   0.2763958  -0.5000000  -0.5000000), wk =   0.0054870
        k(   46) = (   0.3869541   0.0555556   0.0555556), wk =   0.0219479
        k(   47) = (   0.3869541   0.0555556   0.1666667), wk =   0.0438957
        k(   48) = (   0.3869541   0.0555556   0.2777778), wk =   0.0438957
        k(   49) = (   0.3869541   0.0555556   0.3888889), wk =   0.0438957
        k(   50) = (   0.3869541   0.0555556  -0.5000000), wk =   0.0219479
        k(   51) = (   0.3869541   0.1666667   0.1666667), wk =   0.0219479
        k(   52) = (   0.3869541   0.1666667   0.2777778), wk =   0.0438957
        k(   53) = (   0.3869541   0.1666667   0.3888889), wk =   0.0438957
        k(   54) = (   0.3869541   0.1666667  -0.5000000), wk =   0.0219479
        k(   55) = (   0.3869541   0.2777778   0.2777778), wk =   0.0219479
        k(   56) = (   0.3869541   0.2777778   0.3888889), wk =   0.0438957
        k(   57) = (   0.3869541   0.2777778  -0.5000000), wk =   0.0219479
        k(   58) = (   0.3869541   0.3888889   0.3888889), wk =   0.0219479
        k(   59) = (   0.3869541   0.3888889  -0.5000000), wk =   0.0219479
        k(   60) = (   0.3869541  -0.5000000  -0.5000000), wk =   0.0054870
        k(   61) = (  -0.4975124   0.0555556   0.0555556), wk =   0.0109739
        k(   62) = (  -0.4975124   0.0555556   0.1666667), wk =   0.0219479
        k(   63) = (  -0.4975124   0.0555556   0.2777778), wk =   0.0219479
        k(   64) = (  -0.4975124   0.0555556   0.3888889), wk =   0.0219479
        k(   65) = (  -0.4975124   0.0555556  -0.5000000), wk =   0.0109739
        k(   66) = (  -0.4975124   0.1666667   0.1666667), wk =   0.0109739
        k(   67) = (  -0.4975124   0.1666667   0.2777778), wk =   0.0219479
        k(   68) = (  -0.4975124   0.1666667   0.3888889), wk =   0.0219479
        k(   69) = (  -0.4975124   0.1666667  -0.5000000), wk =   0.0109739
        k(   70) = (  -0.4975124   0.2777778   0.2777778), wk =   0.0109739
        k(   71) = (  -0.4975124   0.2777778   0.3888889), wk =   0.0219479
        k(   72) = (  -0.4975124   0.2777778  -0.5000000), wk =   0.0109739
        k(   73) = (  -0.4975124   0.3888889   0.3888889), wk =   0.0109739
        k(   74) = (  -0.4975124   0.3888889  -0.5000000), wk =   0.0109739
        k(   75) = (  -0.4975124  -0.5000000  -0.5000000), wk =   0.0027435

     Check: negative/imaginary core charge=   -0.000002    0.000000

     Initial potential from superposition of free atoms

     starting charge  575.98776, renormalised to  576.00000
     Starting wfcs are  320 randomized atomic wfcs +   26 random wfcs
     Checking if some PAW data can be deallocated...

     Self-consistent Calculation

     iteration #  1     ecut=    71.00 Ry     beta= 0.10
     Davidson diagonalization with overlap
     ethr =  1.00E-02,  avg # of iterations =  3.1

     Threshold (ethr) on eigenvalues was too large:
     Diagonalizing with lowered threshold

     Davidson diagonalization with overlap
     ethr =  8.59E-05,  avg # of iterations =  3.2

     total energy              =  -16385.02303963 Ry
     Harris-Foulkes estimate   =  -16385.09279805 Ry
     estimated scf accuracy    <       0.48856993 Ry

[...]

     total energy              =  -16384.95932240 Ry
     Harris-Foulkes estimate   =  -16384.95931942 Ry
     estimated scf accuracy    <       0.00000381 Ry

     iteration # 11     ecut=    71.00 Ry     beta= 0.10
     Davidson diagonalization with overlap
     ethr =  6.61E-10,  avg # of iterations =  1.0

     End of self-consistent calculation

          k = 0.0553 0.0556 0.0556 ( 33154 PWs)   bands (ev):

   -64.9845 -64.9564 -64.9559 -64.9558 -64.9510 -64.9504 -64.9503 -64.9406
   -64.9405 -64.9404 -64.9382 -64.9379 -64.9377 -64.9376 -64.9375 -64.9375
   -64.9374 -64.9372 -64.9372 -64.9367 -64.9350 -64.9349 -64.9349 -64.9232
   -64.9224 -64.9223 -64.9222 -64.9220 -64.9217 -64.9217 -64.9215 -64.9213
   -30.8658 -30.8658 -30.8657 -30.8639 -30.8461 -30.8461 -30.8443 -30.7713
   -30.7680 -30.7679 -30.7671 -30.7671 -30.7637 -30.7637 -30.7635 -30.7634
   -30.7595 -30.7559 -30.7558 -30.7538 -30.7537 -30.7513 -30.7513 -30.7507
   -30.7506 -30.7357 -30.7357 -30.7328 -30.7328 -30.7323 -30.7323 -30.6937
   -30.6937 -30.6923 -30.6698 -30.6698 -30.6682 -30.6636 -30.6636 -30.6627
   -30.6548 -30.6548 -30.6543 -30.6543 -30.6532 -30.6531 -30.6409 -30.6408
   -30.6398 -30.6398 -30.6393 -30.6393 -30.6388 -30.6388 -30.6384 -30.6370
   -30.6369 -30.6358 -30.6356 -30.6355 -30.6342 -30.5758 -30.5758 -30.5731
   -30.5731 -30.5729 -30.5727 -30.5634 -30.5634 -30.5611 -30.5611 -30.5609
   -30.5608 -30.5591 -30.5591 -30.5569 -30.5554 -30.5548 -30.5546 -30.5540
   -30.5540 -30.5539 -30.5536 -30.5531 -30.5523 -30.5523 -30.5520 -30.5519
   -30.5515 -30.5505 -30.5470 -30.5470 -30.5451 -30.5015 -30.4992 -30.4992
    12.2021  13.9618  13.9620  13.9621  14.0274  14.0411  14.0411  14.0411
    14.2142  14.2312  14.2313  14.2349  14.2352  14.2352  14.4102  14.4268
    14.4268  14.9572  14.9573  14.9741  14.9742  14.9744  14.9745  15.1095
    15.1264  15.1265  15.2662  15.2672  15.2673  15.2923  15.3128  15.3129
    15.3476  15.3477  15.3488  15.3502  15.3502  15.3507  15.3508  15.3535
    15.3536  15.6846  15.6847  15.6949  15.6949  15.6984  15.6985  15.7882
    15.8046  15.8047  15.8090  15.8090  15.8259  15.8260  15.8282  15.8282
    15.8649  15.8840  15.8840  16.0365  16.0365  16.0483  16.0483  16.0530
    16.0531  16.1479  16.1479  16.1531  16.1532  16.1536  16.1537  16.1584
    16.1607  16.1608  16.2618  16.2619  16.2644  16.3050  16.3229  16.3229
    16.3255  16.3566  16.3605  16.3605  16.3681  16.3785  16.3978  16.4088
    17.1685  17.1937  17.1937  17.2425  17.2425  17.2532  17.3145  17.3145
    17.3159  17.3160  17.3216  17.3216  17.3243  17.3244  17.3296  17.3534
    17.3809  17.3810  17.4677  17.4678  17.4862  17.5905  17.5906  17.5957
    17.7104  17.7105  17.7272  17.7682  17.7683  17.7830  17.8433  17.8433
    17.8477  17.8478  17.8482  17.8483  17.8647  17.8648  17.8669  17.8884
    17.9151  17.9152  17.9160  17.9161  17.9287  17.9287  17.9353  18.0239
    18.0239  18.0369  18.4052  18.4053  18.4261  18.5072  18.5072  18.5250
    18.8896  18.8896  18.9035  19.0154  19.0154  19.0180  19.0334  19.0526
    19.0533  19.0682  19.0682  19.2884  19.2888  19.2888  19.3360  19.3361
    19.3372  19.3372  19.3464  19.3532  19.3532  19.3619  19.3619  20.0255
    20.3289  20.3289  20.3292  20.8286  20.8286  20.8568  21.3341  21.3342
    21.3358  21.3359  21.3688  21.3688  21.8608  21.8608  21.8995  22.4041
    22.4978  22.4978  26.1852  26.1852  26.1859  26.3423  27.3025  27.3025
    27.3455  27.3455  27.3889  27.3890  27.9934  27.9934  28.0339  28.0339
    28.0803  28.0804  29.4089  29.4089  29.4270  29.4270  29.4707  29.4708
    29.5061  29.6375  29.6375  30.5094  30.5809  30.5810  30.5963  30.5963
    30.6267  30.6269

[...]

          k = 0.3870-0.5000-0.5000 ( 33208 PWs)   bands (ev):

[...]

          k =-0.4975 0.0556 0.0556 ( 33164 PWs)   bands (ev):

[...]

          k =-0.4975-0.5000-0.5000 ( 33152 PWs)   bands (ev):

   -64.9619 -64.9616 -64.9615 -64.9614 -64.9611 -64.9609 -64.9608 -64.9606
   -64.9310 -64.9308 -64.9307 -64.9305 -64.9303 -64.9302 -64.9301 -64.9300
   -64.9299 -64.9299 -64.9299 -64.9298 -64.9297 -64.9296 -64.9296 -64.9295
   -64.9294 -64.9293 -64.9291 -64.9291 -64.9291 -64.9290 -64.9289 -64.9287
   -30.8060 -30.8059 -30.8059 -30.8059 -30.8058 -30.8057 -30.8057 -30.8056
   -30.8056 -30.8055 -30.8054 -30.8054 -30.8053 -30.8053 -30.8053 -30.8052
   -30.8040 -30.8039 -30.8037 -30.8037 -30.8034 -30.8034 -30.8032 -30.8032
   -30.6847 -30.6847 -30.6846 -30.6846 -30.6845 -30.6844 -30.6844 -30.6843
   -30.6485 -30.6485 -30.6484 -30.6483 -30.6482 -30.6482 -30.6482 -30.6481
   -30.6480 -30.6480 -30.6479 -30.6479 -30.6479 -30.6479 -30.6478 -30.6478
   -30.6478 -30.6478 -30.6477 -30.6477 -30.6476 -30.6476 -30.6476 -30.6475
   -30.5959 -30.5958 -30.5958 -30.5958 -30.5956 -30.5956 -30.5956 -30.5956
   -30.5953 -30.5953 -30.5953 -30.5953 -30.5951 -30.5951 -30.5950 -30.5950
   -30.5930 -30.5930 -30.5930 -30.5929 -30.5928 -30.5928 -30.5928 -30.5927
   -30.5265 -30.5264 -30.5263 -30.5263 -30.5260 -30.5260 -30.5258 -30.5257
   -30.5249 -30.5248 -30.5248 -30.5248 -30.5247 -30.5247 -30.5246 -30.5246
    13.8318  13.8321  13.8324  13.8325  13.8326  13.8328  13.8331  13.8333
    14.6801  14.6802  14.6802  14.6803  14.6804  14.6804  14.6805  14.6806
    14.6829  14.6830  14.6830  14.6830  14.6831  14.6831  14.6832  14.6832
    14.6835  14.6835  14.6836  14.6836  14.6836  14.6837  14.6837  14.6837
    15.4324  15.4324  15.4326  15.4327  15.4327  15.4328  15.4328  15.4330
    15.4331  15.4332  15.4332  15.4334  15.4334  15.4335  15.4335  15.4336
    15.4363  15.4366  15.4367  15.4367  15.4369  15.4369  15.4371  15.4373
    16.3579  16.3581  16.3581  16.3581  16.3581  16.3582  16.3582  16.3582
    16.6444  16.6445  16.6445  16.6446  16.6447  16.6447  16.6447  16.6449
    16.6840  16.6840  16.6841  16.6842  16.6842  16.6843  16.6843  16.6845
    16.8336  16.8337  16.8337  16.8338  16.8339  16.8339  16.8339  16.8341
    16.8558  16.8559  16.8559  16.8560  16.8560  16.8561  16.8561  16.8562
    16.8562  16.8562  16.8563  16.8563  16.8564  16.8564  16.8565  16.8566
    17.5552  17.5553  17.5553  17.5554  17.5554  17.5554  17.5555  17.5556
    17.5556  17.5556  17.5557  17.5557  17.5558  17.5558  17.5558  17.5560
    17.5746  17.5746  17.5747  17.5748  17.5750  17.5751  17.5752  17.5753
    18.0567  18.0568  18.0569  18.0570  18.0571  18.0572  18.0572  18.0574
    18.0698  18.0699  18.0699  18.0700  18.0703  18.0704  18.0705  18.0706
    19.1416  19.1417  19.1418  19.1418  19.1419  19.1420  19.1421  19.1421
    19.1489  19.1489  19.1489  19.1490  19.1490  19.1490  19.1490  19.1491
    19.1491  19.1492  19.1492  19.1492  19.1492  19.1493  19.1493  19.1493
    22.6832  22.6834  22.6836  22.6837  22.6839  22.6840  22.6843  22.6843
    22.7245  22.7246  22.7246  22.7247  22.7248  22.7249  22.7249  22.7249
    22.7251  22.7252  22.7252  22.7253  22.7254  22.7254  22.7255  22.7255
    28.1221  28.1222  28.1223  28.1223  28.1224  28.1225  28.1226  28.1227
    28.1227  28.1228  28.1229  28.1230  28.1231  28.1231  28.1232  28.1232
    28.1685  28.1687  28.1687  28.1688  28.1688  28.1689  28.1690  28.1690
    33.3974  33.3976

     the Fermi energy is    19.1689 ev

!    total energy              =  -16384.95933363 Ry
     Harris-Foulkes estimate   =  -16384.95932268 Ry
     estimated scf accuracy    <       0.00000051 Ry

     total all-electron energy =   -322945.813041 Ry

     The total energy is the sum of the following terms:

     one-electron contribution =   -2501.09770320 Ry
     hartree contribution      =    1665.99015034 Ry
     xc contribution           =    -986.41095777 Ry
     ewald contribution        =   -6396.05433136 Ry
     one-center paw contrib.   =   -8167.42108362 Ry
     smearing contrib. (-TS)   =       0.03459198 Ry

     convergence has been achieved in  11 iterations

     Forces acting on atoms (cartesian axes, Ry/au):

     atom    1 type  1   force =     0.00000000    0.00000000    0.00000000
     atom    2 type  1   force =     0.00000573    0.00007352   -0.00000000
     atom    3 type  1   force =     0.00000573   -0.00000000    0.00007352
     atom    4 type  1   force =     0.00000000    0.00005351    0.00005351
     atom    5 type  1   force =     0.00000000    0.00000000    0.00000000
     atom    6 type  1   force =     0.00006147    0.00010190    0.00000000
     atom    7 type  1   force =     0.00000573    0.00000000   -0.00007352
     atom    8 type  1   force =     0.00000000    0.00005351   -0.00005351
     atom    9 type  1   force =     0.00000000    0.00000000   -0.00000000
     atom   10 type  1   force =     0.00000573   -0.00007352   -0.00000000
     atom   11 type  1   force =     0.00006147    0.00000000    0.00010190
     atom   12 type  1   force =     0.00000000   -0.00005351    0.00005351
     atom   13 type  1   force =     0.00000000    0.00000000    0.00000000
     atom   14 type  1   force =     0.00006147   -0.00010190    0.00000000
     atom   15 type  1   force =     0.00006147    0.00000000   -0.00010190
     atom   16 type  1   force =     0.00000000   -0.00005351   -0.00005351
     atom   17 type  1   force =     0.00000000    0.00000000   -0.00000000
     atom   18 type  1   force =    -0.00000573    0.00007352   -0.00000000
     atom   19 type  1   force =    -0.00000573   -0.00000000    0.00007352
     atom   20 type  1   force =     0.00000000    0.00013725    0.00013725
     atom   21 type  1   force =     0.00000000    0.00000000    0.00000000
     atom   22 type  1   force =    -0.00006147    0.00010190    0.00000000
     atom   23 type  1   force =    -0.00000573    0.00000000   -0.00007352
     atom   24 type  1   force =     0.00000000    0.00013725   -0.00013725
     atom   25 type  1   force =     0.00000000    0.00000000   -0.00000000
     atom   26 type  1   force =    -0.00000573   -0.00007352    0.00000000
     atom   27 type  1   force =    -0.00006147    0.00000000    0.00010190
     atom   28 type  1   force =     0.00000000   -0.00013725    0.00013725
     atom   29 type  1   force =     0.00000000    0.00000000    0.00000000
     atom   30 type  1   force =    -0.00006147   -0.00010190    0.00000000
     atom   31 type  1   force =    -0.00006147    0.00000000   -0.00010190
     atom   32 type  1   force =     0.00000000   -0.00013725   -0.00013725

     Total force =     0.000575     Total SCF correction =     0.004956
     SCF correction compared to forces is large: reduce conv_thr to get better values

     Computing stress (Cartesian axis) and pressure

          total   stress  (Ry/bohr**3)                   (kbar)     P=   -7.59
  -0.00006861   0.00000000   0.00000000        -10.09      0.00      0.00
   0.00000000  -0.00004305   0.00000000          0.00     -6.33      0.00
   0.00000000   0.00000000  -0.00004305          0.00      0.00     -6.33

     Writing output data file ICFbmUwcffOexnex.save/

     General routines

     Parallel routines

   This run was terminated on:  13:59:10  11Nov2020

   JOB DONE.