     Program PWSCF v.6.3 starts on 11Nov2020 at 11:58: 1

     R & G space division:  proc/nbgrp/npool/nimage =      20
     Reading input from wd/ec/ec_1_005.in
Warning: card &IONS ignored
Warning: card ION_DYNAMICS = 'BFGS', ignored
Warning: card / ignored
Warning: card &CELL ignored
Warning: card CELL_DYNAMICS = 'BFGS', ignored
Warning: card CELL_FACTOR = 2.0, ignored
Warning: card PRESS = 0.0, ignored
Warning: card / ignored

     Current dimensions of program PWSCF are:
     Max number of different atomic species (ntypx) = 10
     Max number of k-points (npk) =  40000
     Max angular momentum in pseudopotentials (lmaxx) =  3
               file Pd.pbe-spn-kjpaw_psl.1.0.0.UPF: wavefunction(s)  4S 5S 4D renormalized

     Subspace diagonalization in iterative solution of the eigenvalue problem:
     a serial algorithm will be used

     bravais-lattice index     =            0
     lattice parameter (alat)  =      14.8394  a.u.
     unit-cell volume          =    3278.6572 (a.u.)^3
     number of atoms/cell      =           32
     number of atomic types    =            1
     number of electrons       =       576.00
     number of Kohn-Sham states=          346
     kinetic-energy cutoff     =      71.0000  Ry
     charge density cutoff     =     430.0000  Ry
     convergence threshold     =      1.0E-06
     mixing beta               =       0.1000
     number of iterations used =           10  plain     mixing
     Exchange-correlation      = SLA PW PBX PBC ( 1  4  3  4 0 0)

     celldm(1)=  14.839420  celldm(2)=   0.000000  celldm(3)=   0.000000
     celldm(4)=   0.000000  celldm(5)=   0.000000  celldm(6)=   0.000000

     crystal axes: (cart. coord. in units of alat)
               a(1) = (   1.003333   0.000000   0.000000 )
               a(2) = (   0.000000   1.000000   0.000000 )
               a(3) = (   0.000000   0.000000   1.000000 )

     reciprocal axes: (cart. coord. in units 2 pi/alat)
               b(1) = (  0.996678  0.000000  0.000000 )
               b(2) = (  0.000000  1.000000  0.000000 )
               b(3) = (  0.000000  0.000000  1.000000 )

     PseudoPot. # 1 for Pd read from file:
     /rds/homes/b/bxp912/pp/Pd.pbe-spn-kjpaw_psl.1.0.0.UPF
     MD5 check sum: 790f2ebce206edfd9790dcb9844eca51
     Pseudo is Projector augmented-wave + core cor, Zval = 18.0
     Generated using "atomic" code by A. Dal Corso v.6.3
     Shape of augmentation charge: PSQ
     Using radial grid of 1235 points,  6 beta functions with:
                l(1) =   0
                l(2) =   0
                l(3) =   1
                l(4) =   1
                l(5) =   2
                l(6) =   2
     Q(r) pseudized with 0 coefficients

     atomic species   valence    mass     pseudopotential
        Pd            18.00   106.42000     Pd( 1.00)

     16 Sym. Ops., with inversion, found

   Cartesian axes

     site n.     atom                  positions (alat units)
         1           Pd  tau(   1) = (   0.0000000   0.0000000   0.0000000  )
         2           Pd  tau(   2) = (   0.2508378   0.2500045   0.0000000  )
         3           Pd  tau(   3) = (   0.2508378   0.0000000   0.2500040  )
         4           Pd  tau(   4) = (   0.0000000   0.2500045   0.2500040  )
         5           Pd  tau(   5) = (   0.0000000   0.0000000   0.4999990  )
         6           Pd  tau(   6) = (   0.2508450   0.2500116   0.4999990  )
         7           Pd  tau(   7) = (   0.2508378   0.0000000   0.7499950  )
         8           Pd  tau(   8) = (   0.0000000   0.2500045   0.7499950  )
         9           Pd  tau(   9) = (   0.0000000   0.4999998   0.0000000  )
        10           Pd  tau(  10) = (   0.2508378   0.7499952   0.0000000  )
        11           Pd  tau(  11) = (   0.2508450   0.4999998   0.2500109  )
        12           Pd  tau(  12) = (   0.0000000   0.7499952   0.2500040  )
        13           Pd  tau(  13) = (   0.0000000   0.4999998   0.4999990  )
        14           Pd  tau(  14) = (   0.2508450   0.7499881   0.4999990  )
        15           Pd  tau(  15) = (   0.2508450   0.4999998   0.7499881  )
        16           Pd  tau(  16) = (   0.0000000   0.7499952   0.7499950  )
        17           Pd  tau(  17) = (   0.5016665   0.0000000   0.0000000  )
        18           Pd  tau(  18) = (   0.7524952   0.2500045   0.0000000  )
        19           Pd  tau(  19) = (   0.7524952   0.0000000   0.2500040  )
        20           Pd  tau(  20) = (   0.5016665   0.2500116   0.2500109  )
        21           Pd  tau(  21) = (   0.5016665   0.0000000   0.4999990  )
        22           Pd  tau(  22) = (   0.7524881   0.2500116   0.4999990  )
        23           Pd  tau(  23) = (   0.7524952   0.0000000   0.7499950  )
        24           Pd  tau(  24) = (   0.5016665   0.2500116   0.7499881  )
        25           Pd  tau(  25) = (   0.5016665   0.4999998   0.0000000  )
        26           Pd  tau(  26) = (   0.7524952   0.7499952   0.0000000  )
        27           Pd  tau(  27) = (   0.7524881   0.4999998   0.2500109  )
        28           Pd  tau(  28) = (   0.5016665   0.7499881   0.2500109  )
        29           Pd  tau(  29) = (   0.5016665   0.4999998   0.4999990  )
        30           Pd  tau(  30) = (   0.7524881   0.7499881   0.4999990  )
        31           Pd  tau(  31) = (   0.7524881   0.4999998   0.7499881  )
        32           Pd  tau(  32) = (   0.5016665   0.7499881   0.7499881  )

     number of k points=    75  Marzari-Vanderbilt smearing, width (Ry)=  0.0400
                       cart. coord. in units 2pi/alat
        k(    1) = (   0.0553710   0.0555556   0.0555556), wk =   0.0219479
        k(    2) = (   0.0553710   0.0555556   0.1666667), wk =   0.0438957
        k(    3) = (   0.0553710   0.0555556   0.2777778), wk =   0.0438957
        k(    4) = (   0.0553710   0.0555556   0.3888889), wk =   0.0438957
        k(    5) = (   0.0553710   0.0555556  -0.5000000), wk =   0.0219479
        k(    6) = (   0.0553710   0.1666667   0.1666667), wk =   0.0219479
        k(    7) = (   0.0553710   0.1666667   0.2777778), wk =   0.0438957
        k(    8) = (   0.0553710   0.1666667   0.3888889), wk =   0.0438957
        k(    9) = (   0.0553710   0.1666667  -0.5000000), wk =   0.0219479
        k(   10) = (   0.0553710   0.2777778   0.2777778), wk =   0.0219479
        k(   11) = (   0.0553710   0.2777778   0.3888889), wk =   0.0438957
        k(   12) = (   0.0553710   0.2777778  -0.5000000), wk =   0.0219479
        k(   13) = (   0.0553710   0.3888889   0.3888889), wk =   0.0219479
        k(   14) = (   0.0553710   0.3888889  -0.5000000), wk =   0.0219479
        k(   15) = (   0.0553710  -0.5000000  -0.5000000), wk =   0.0054870
        k(   16) = (   0.1661130   0.0555556   0.0555556), wk =   0.0219479
        k(   17) = (   0.1661130   0.0555556   0.1666667), wk =   0.0438957
        k(   18) = (   0.1661130   0.0555556   0.2777778), wk =   0.0438957
        k(   19) = (   0.1661130   0.0555556   0.3888889), wk =   0.0438957
        k(   20) = (   0.1661130   0.0555556  -0.5000000), wk =   0.0219479
        k(   21) = (   0.1661130   0.1666667   0.1666667), wk =   0.0219479
        k(   22) = (   0.1661130   0.1666667   0.2777778), wk =   0.0438957
        k(   23) = (   0.1661130   0.1666667   0.3888889), wk =   0.0438957
        k(   24) = (   0.1661130   0.1666667  -0.5000000), wk =   0.0219479
        k(   25) = (   0.1661130   0.2777778   0.2777778), wk =   0.0219479
        k(   26) = (   0.1661130   0.2777778   0.3888889), wk =   0.0438957
        k(   27) = (   0.1661130   0.2777778  -0.5000000), wk =   0.0219479
        k(   28) = (   0.1661130   0.3888889   0.3888889), wk =   0.0219479
        k(   29) = (   0.1661130   0.3888889  -0.5000000), wk =   0.0219479
        k(   30) = (   0.1661130  -0.5000000  -0.5000000), wk =   0.0054870
        k(   31) = (   0.2768549   0.0555556   0.0555556), wk =   0.0219479
        k(   32) = (   0.2768549   0.0555556   0.1666667), wk =   0.0438957
        k(   33) = (   0.2768549   0.0555556   0.2777778), wk =   0.0438957
        k(   34) = (   0.2768549   0.0555556   0.3888889), wk =   0.0438957
        k(   35) = (   0.2768549   0.0555556  -0.5000000), wk =   0.0219479
        k(   36) = (   0.2768549   0.1666667   0.1666667), wk =   0.0219479
        k(   37) = (   0.2768549   0.1666667   0.2777778), wk =   0.0438957
        k(   38) = (   0.2768549   0.1666667   0.3888889), wk =   0.0438957
        k(   39) = (   0.2768549   0.1666667  -0.5000000), wk =   0.0219479
        k(   40) = (   0.2768549   0.2777778   0.2777778), wk =   0.0219479
        k(   41) = (   0.2768549   0.2777778   0.3888889), wk =   0.0438957
        k(   42) = (   0.2768549   0.2777778  -0.5000000), wk =   0.0219479
        k(   43) = (   0.2768549   0.3888889   0.3888889), wk =   0.0219479
        k(   44) = (   0.2768549   0.3888889  -0.5000000), wk =   0.0219479
        k(   45) = (   0.2768549  -0.5000000  -0.5000000), wk =   0.0054870
        k(   46) = (   0.3875969   0.0555556   0.0555556), wk =   0.0219479
        k(   47) = (   0.3875969   0.0555556   0.1666667), wk =   0.0438957
        k(   48) = (   0.3875969   0.0555556   0.2777778), wk =   0.0438957
        k(   49) = (   0.3875969   0.0555556   0.3888889), wk =   0.0438957
        k(   50) = (   0.3875969   0.0555556  -0.5000000), wk =   0.0219479
        k(   51) = (   0.3875969   0.1666667   0.1666667), wk =   0.0219479
        k(   52) = (   0.3875969   0.1666667   0.2777778), wk =   0.0438957
        k(   53) = (   0.3875969   0.1666667   0.3888889), wk =   0.0438957
        k(   54) = (   0.3875969   0.1666667  -0.5000000), wk =   0.0219479
        k(   55) = (   0.3875969   0.2777778   0.2777778), wk =   0.0219479
        k(   56) = (   0.3875969   0.2777778   0.3888889), wk =   0.0438957
        k(   57) = (   0.3875969   0.2777778  -0.5000000), wk =   0.0219479
        k(   58) = (   0.3875969   0.3888889   0.3888889), wk =   0.0219479
        k(   59) = (   0.3875969   0.3888889  -0.5000000), wk =   0.0219479
        k(   60) = (   0.3875969  -0.5000000  -0.5000000), wk =   0.0054870
        k(   61) = (  -0.4983389   0.0555556   0.0555556), wk =   0.0109739
        k(   62) = (  -0.4983389   0.0555556   0.1666667), wk =   0.0219479
        k(   63) = (  -0.4983389   0.0555556   0.2777778), wk =   0.0219479
        k(   64) = (  -0.4983389   0.0555556   0.3888889), wk =   0.0219479
        k(   65) = (  -0.4983389   0.0555556  -0.5000000), wk =   0.0109739
        k(   66) = (  -0.4983389   0.1666667   0.1666667), wk =   0.0109739
        k(   67) = (  -0.4983389   0.1666667   0.2777778), wk =   0.0219479
        k(   68) = (  -0.4983389   0.1666667   0.3888889), wk =   0.0219479
        k(   69) = (  -0.4983389   0.1666667  -0.5000000), wk =   0.0109739
        k(   70) = (  -0.4983389   0.2777778   0.2777778), wk =   0.0109739
        k(   71) = (  -0.4983389   0.2777778   0.3888889), wk =   0.0219479
        k(   72) = (  -0.4983389   0.2777778  -0.5000000), wk =   0.0109739
        k(   73) = (  -0.4983389   0.3888889   0.3888889), wk =   0.0109739
        k(   74) = (  -0.4983389   0.3888889  -0.5000000), wk =   0.0109739
        k(   75) = (  -0.4983389  -0.5000000  -0.5000000), wk =   0.0027435

     Check: negative/imaginary core charge=   -0.000002    0.000000

     Initial potential from superposition of free atoms

     starting charge  575.98776, renormalised to  576.00000
     Starting wfcs are  320 randomized atomic wfcs +   26 random wfcs
     Checking if some PAW data can be deallocated...

     Self-consistent Calculation

     iteration #  1     ecut=    71.00 Ry     beta= 0.10
     Davidson diagonalization with overlap
     ethr =  1.00E-02,  avg # of iterations =  3.1

     Threshold (ethr) on eigenvalues was too large:
     Diagonalizing with lowered threshold

     Davidson diagonalization with overlap
     ethr =  8.49E-05,  avg # of iterations =  3.1

     total energy              =  -16385.02221826 Ry
     Harris-Foulkes estimate   =  -16385.09113800 Ry
     estimated scf accuracy    <       0.48315068 Ry

[...]

     total energy              =  -16384.95906106 Ry
     Harris-Foulkes estimate   =  -16384.95905820 Ry
     estimated scf accuracy    <       0.00000374 Ry

     iteration # 11     ecut=    71.00 Ry     beta= 0.10
     Davidson diagonalization with overlap
     ethr =  6.49E-10,  avg # of iterations =  1.0

     End of self-consistent calculation

          k = 0.0554 0.0556 0.0556 ( 33087 PWs)   bands (ev):

   -64.9464 -64.9179 -64.9176 -64.9176 -64.9125 -64.9121 -64.9121 -64.9022
   -64.9021 -64.9020 -64.8998 -64.8994 -64.8993 -64.8992 -64.8991 -64.8990
   -64.8990 -64.8988 -64.8987 -64.8982 -64.8966 -64.8965 -64.8964 -64.8845
   -64.8838 -64.8837 -64.8836 -64.8834 -64.8832 -64.8832 -64.8831 -64.8827
   -30.8288 -30.8288 -30.8287 -30.8268 -30.8088 -30.8088 -30.8076 -30.7330
   -30.7308 -30.7307 -30.7288 -30.7287 -30.7265 -30.7265 -30.7263 -30.7263
   -30.7211 -30.7187 -30.7186 -30.7155 -30.7154 -30.7139 -30.7138 -30.7134
   -30.7134 -30.6972 -30.6972 -30.6952 -30.6952 -30.6950 -30.6949 -30.6555
   -30.6555 -30.6546 -30.6314 -30.6314 -30.6304 -30.6253 -30.6253 -30.6246
   -30.6162 -30.6162 -30.6159 -30.6159 -30.6152 -30.6151 -30.6016 -30.6014
   -30.6012 -30.6012 -30.6006 -30.6005 -30.6003 -30.6003 -30.6002 -30.5990
   -30.5990 -30.5981 -30.5976 -30.5976 -30.5965 -30.5364 -30.5364 -30.5346
   -30.5345 -30.5345 -30.5343 -30.5240 -30.5240 -30.5225 -30.5224 -30.5223
   -30.5223 -30.5200 -30.5199 -30.5185 -30.5161 -30.5155 -30.5153 -30.5148
   -30.5148 -30.5147 -30.5144 -30.5138 -30.5138 -30.5137 -30.5135 -30.5134
   -30.5130 -30.5120 -30.5078 -30.5077 -30.5065 -30.4623 -30.4600 -30.4599
    12.2328  13.9915  13.9916  13.9917  14.0581  14.0718  14.0718  14.0718
    14.2507  14.2620  14.2620  14.2653  14.2654  14.2654  14.4463  14.4573
    14.4574  14.9928  14.9929  15.0041  15.0042  15.0043  15.0044  15.1457
    15.1570  15.1570  15.3002  15.3009  15.3010  15.3297  15.3434  15.3435
    15.3821  15.3821  15.3835  15.3838  15.3838  15.3841  15.3842  15.3866
    15.3867  15.7213  15.7213  15.7282  15.7282  15.7306  15.7306  15.8261
    15.8371  15.8371  15.8474  15.8474  15.8587  15.8587  15.8601  15.8602
    15.9035  15.9163  15.9164  16.0745  16.0745  16.0824  16.0824  16.0856
    16.0857  16.1839  16.1840  16.1889  16.1890  16.1892  16.1893  16.1910
    16.1940  16.1941  16.2973  16.2974  16.2990  16.3475  16.3624  16.3624
    16.3682  16.3922  16.3922  16.3967  16.4010  16.4072  16.4300  16.4398
    17.2121  17.2289  17.2289  17.2815  17.2816  17.2887  17.3538  17.3538
    17.3547  17.3548  17.3604  17.3605  17.3605  17.3606  17.3659  17.3979
    17.4163  17.4164  17.5086  17.5086  17.5209  17.6298  17.6299  17.6333
    17.7516  17.7517  17.7629  17.8094  17.8095  17.8192  17.8838  17.8839
    17.8868  17.8869  17.8872  17.8872  17.9044  17.9045  17.9058  17.9363
    17.9567  17.9567  17.9572  17.9573  17.9657  17.9657  17.9676  18.0656
    18.0656  18.0742  18.4490  18.4491  18.4629  18.5509  18.5509  18.5628
    18.9335  18.9335  18.9428  19.0589  19.0589  19.0605  19.0798  19.0926
    19.0997  19.1097  19.1097  19.3333  19.3345  19.3345  19.3831  19.3832
    19.3839  19.3839  19.3910  19.3947  19.3947  19.4004  19.4004  20.0651
    20.3694  20.3695  20.3696  20.8779  20.8779  20.8967  21.3850  21.3850
    21.3861  21.3862  21.4082  21.4082  21.9126  21.9126  21.9384  22.4680
    22.5307  22.5307  26.2411  26.2412  26.2417  26.3982  27.3689  27.3689
    27.3976  27.3976  27.4266  27.4267  28.0603  28.0603  28.0874  28.0874
    28.1184  28.1185  29.4759  29.4759  29.4879  29.4879  29.5165  29.5165
    29.5950  29.6828  29.6828  30.5828  30.6420  30.6421  30.6522  30.6523
    30.6734  30.6734

[...]

          k = 0.3876-0.5000-0.5000 ( 33116 PWs)   bands (ev):

[...]

          k =-0.4983 0.0556 0.0556 ( 33116 PWs)   bands (ev):

[...]

          k =-0.4983-0.5000-0.5000 ( 33072 PWs)   bands (ev):

   -64.9236 -64.9234 -64.9233 -64.9231 -64.9228 -64.9226 -64.9225 -64.9223
   -64.8924 -64.8922 -64.8921 -64.8919 -64.8918 -64.8917 -64.8916 -64.8915
   -64.8914 -64.8914 -64.8914 -64.8913 -64.8912 -64.8911 -64.8911 -64.8910
   -64.8909 -64.8908 -64.8907 -64.8906 -64.8906 -64.8905 -64.8904 -64.8902
   -30.7684 -30.7683 -30.7683 -30.7683 -30.7682 -30.7681 -30.7681 -30.7680
   -30.7680 -30.7679 -30.7678 -30.7678 -30.7678 -30.7677 -30.7677 -30.7677
   -30.7669 -30.7668 -30.7667 -30.7666 -30.7664 -30.7663 -30.7662 -30.7661
   -30.6466 -30.6466 -30.6465 -30.6464 -30.6464 -30.6463 -30.6463 -30.6462
   -30.6101 -30.6101 -30.6100 -30.6099 -30.6098 -30.6098 -30.6097 -30.6097
   -30.6097 -30.6097 -30.6097 -30.6096 -30.6096 -30.6096 -30.6095 -30.6095
   -30.6095 -30.6095 -30.6094 -30.6094 -30.6093 -30.6093 -30.6093 -30.6092
   -30.5570 -30.5569 -30.5569 -30.5569 -30.5567 -30.5567 -30.5567 -30.5567
   -30.5564 -30.5564 -30.5564 -30.5564 -30.5562 -30.5562 -30.5561 -30.5561
   -30.5549 -30.5549 -30.5549 -30.5549 -30.5547 -30.5547 -30.5547 -30.5547
   -30.4872 -30.4872 -30.4871 -30.4870 -30.4868 -30.4868 -30.4865 -30.4865
   -30.4860 -30.4860 -30.4859 -30.4859 -30.4858 -30.4858 -30.4858 -30.4857
    13.8639  13.8643  13.8645  13.8647  13.8647  13.8650  13.8652  13.8654
    14.7124  14.7124  14.7125  14.7126  14.7127  14.7127  14.7128  14.7129
    14.7142  14.7142  14.7142  14.7143  14.7143  14.7144  14.7144  14.7145
    14.7147  14.7148  14.7148  14.7149  14.7149  14.7149  14.7150  14.7150
    15.4659  15.4660  15.4662  15.4662  15.4663  15.4663  15.4664  15.4665
    15.4667  15.4667  15.4667  15.4669  15.4670  15.4671  15.4671  15.4671
    15.4686  15.4689  15.4690  15.4690  15.4692  15.4693  15.4694  15.4696
    16.3936  16.3939  16.3939  16.3939  16.3939  16.3940  16.3940  16.3940
    16.6875  16.6876  16.6876  16.6877  16.6878  16.6878  16.6878  16.6880
    16.7140  16.7140  16.7141  16.7141  16.7142  16.7143  16.7143  16.7145
    16.8754  16.8756  16.8756  16.8757  16.8757  16.8758  16.8758  16.8760
    16.8902  16.8903  16.8904  16.8905  16.8905  16.8906  16.8906  16.8906
    16.8907  16.8907  16.8907  16.8908  16.8908  16.8909  16.8910  16.8911
    17.5962  17.5963  17.5963  17.5963  17.5964  17.5964  17.5965  17.5966
    17.5966  17.5966  17.5967  17.5967  17.5968  17.5968  17.5968  17.5969
    17.6092  17.6092  17.6093  17.6094  17.6096  17.6097  17.6098  17.6099
    18.0992  18.0994  18.0994  18.0995  18.0996  18.0998  18.0998  18.0999
    18.1079  18.1081  18.1081  18.1082  18.1085  18.1086  18.1086  18.1087
    19.1868  19.1868  19.1869  19.1869  19.1870  19.1871  19.1872  19.1872
    19.1916  19.1917  19.1917  19.1917  19.1917  19.1918  19.1918  19.1919
    19.1919  19.1919  19.1920  19.1920  19.1920  19.1920  19.1921  19.1921
    22.7398  22.7400  22.7402  22.7403  22.7404  22.7406  22.7408  22.7409
    22.7673  22.7674  22.7675  22.7676  22.7676  22.7677  22.7678  22.7678
    22.7679  22.7680  22.7681  22.7681  22.7682  22.7683  22.7683  22.7684
    28.1810  28.1812  28.1812  28.1813  28.1813  28.1814  28.1816  28.1816
    28.1816  28.1817  28.1819  28.1820  28.1820  28.1821  28.1821  28.1822
    28.2121  28.2124  28.2124  28.2124  28.2125  28.2125  28.2126  28.2127
    33.4869  33.4875

     the Fermi energy is    19.2120 ev

!    total energy              =  -16384.95907233 Ry
     Harris-Foulkes estimate   =  -16384.95906134 Ry
     estimated scf accuracy    <       0.00000051 Ry

     total all-electron energy =   -322945.812779 Ry

     The total energy is the sum of the following terms:

     one-electron contribution =   -2495.56898067 Ry
     hartree contribution      =    1664.04333967 Ry
     xc contribution           =    -986.44915609 Ry
     ewald contribution        =   -6399.59534177 Ry
     one-center paw contrib.   =   -8167.42292488 Ry
     smearing contrib. (-TS)   =       0.03399141 Ry

     convergence has been achieved in  11 iterations

     Forces acting on atoms (cartesian axes, Ry/au):

     atom    1 type  1   force =     0.00000000    0.00000000    0.00000000
     atom    2 type  1   force =     0.00000520    0.00007430    0.00000000
     atom    3 type  1   force =     0.00000520   -0.00000000    0.00007430
     atom    4 type  1   force =     0.00000000    0.00005377    0.00005377
     atom    5 type  1   force =     0.00000000    0.00000000    0.00000000
     atom    6 type  1   force =     0.00005993    0.00010081   -0.00000000
     atom    7 type  1   force =     0.00000520    0.00000000   -0.00007430
     atom    8 type  1   force =     0.00000000    0.00005377   -0.00005377
     atom    9 type  1   force =     0.00000000    0.00000000    0.00000000
     atom   10 type  1   force =     0.00000520   -0.00007430    0.00000000
     atom   11 type  1   force =     0.00005993   -0.00000000    0.00010081
     atom   12 type  1   force =     0.00000000   -0.00005377    0.00005377
     atom   13 type  1   force =     0.00000000    0.00000000    0.00000000
     atom   14 type  1   force =     0.00005993   -0.00010081    0.00000000
     atom   15 type  1   force =     0.00005993    0.00000000   -0.00010081
     atom   16 type  1   force =     0.00000000   -0.00005377   -0.00005377
     atom   17 type  1   force =     0.00000000    0.00000000    0.00000000
     atom   18 type  1   force =    -0.00000520    0.00007430   -0.00000000
     atom   19 type  1   force =    -0.00000520   -0.00000000    0.00007430
     atom   20 type  1   force =     0.00000000    0.00013516    0.00013516
     atom   21 type  1   force =     0.00000000    0.00000000    0.00000000
     atom   22 type  1   force =    -0.00005993    0.00010081    0.00000000
     atom   23 type  1   force =    -0.00000520    0.00000000   -0.00007430
     atom   24 type  1   force =     0.00000000    0.00013516   -0.00013516
     atom   25 type  1   force =     0.00000000    0.00000000   -0.00000000
     atom   26 type  1   force =    -0.00000520   -0.00007430    0.00000000
     atom   27 type  1   force =    -0.00005993   -0.00000000    0.00010081
     atom   28 type  1   force =     0.00000000   -0.00013516    0.00013516
     atom   29 type  1   force =     0.00000000    0.00000000    0.00000000
     atom   30 type  1   force =    -0.00005993   -0.00010081    0.00000000
     atom   31 type  1   force =    -0.00005993    0.00000000   -0.00010081
     atom   32 type  1   force =     0.00000000   -0.00013516   -0.00013516

     Total force =     0.000569     Total SCF correction =     0.004899
     SCF correction compared to forces is large: reduce conv_thr to get better values

     Computing stress (Cartesian axis) and pressure

          total   stress  (Ry/bohr**3)                   (kbar)     P=   -4.68
  -0.00004327   0.00000000   0.00000000         -6.37      0.00      0.00
   0.00000000  -0.00002611   0.00000000          0.00     -3.84      0.00
   0.00000000   0.00000000  -0.00002611          0.00      0.00     -3.84

     Writing output data file WuSqVhLHVdTeoCRV.save/

     General routines

     Parallel routines

   This run was terminated on:  12:38: 0  11Nov2020

   JOB DONE.