     Program PWSCF v.6.3 starts on 11Nov2020 at 11:18:11

     R & G space division:  proc/nbgrp/npool/nimage =      20
     Reading input from wd/ec/ec_1_004.in
Warning: card &IONS ignored
Warning: card ION_DYNAMICS = 'BFGS', ignored
Warning: card / ignored
Warning: card &CELL ignored
Warning: card CELL_DYNAMICS = 'BFGS', ignored
Warning: card CELL_FACTOR = 2.0, ignored
Warning: card PRESS = 0.0, ignored
Warning: card / ignored

     Current dimensions of program PWSCF are:
     Max number of different atomic species (ntypx) = 10
     Max number of k-points (npk) =  40000
     Max angular momentum in pseudopotentials (lmaxx) =  3
               file Pd.pbe-spn-kjpaw_psl.1.0.0.UPF: wavefunction(s)  4S 5S 4D renormalized

     Subspace diagonalization in iterative solution of the eigenvalue problem:
     a serial algorithm will be used

     bravais-lattice index     =            0
     lattice parameter (alat)  =      14.8394  a.u.
     unit-cell volume          =    3275.9340 (a.u.)^3
     number of atoms/cell      =           32
     number of atomic types    =            1
     number of electrons       =       576.00
     number of Kohn-Sham states=          346
     kinetic-energy cutoff     =      71.0000  Ry
     charge density cutoff     =     430.0000  Ry
     convergence threshold     =      1.0E-06
     mixing beta               =       0.1000
     number of iterations used =           10  plain     mixing
     Exchange-correlation      = SLA PW PBX PBC ( 1  4  3  4 0 0)

     celldm(1)=  14.839420  celldm(2)=   0.000000  celldm(3)=   0.000000
     celldm(4)=   0.000000  celldm(5)=   0.000000  celldm(6)=   0.000000

     crystal axes: (cart. coord. in units of alat)
               a(1) = (   1.002500   0.000000   0.000000 )
               a(2) = (   0.000000   1.000000   0.000000 )
               a(3) = (   0.000000   0.000000   1.000000 )

     reciprocal axes: (cart. coord. in units 2 pi/alat)
               b(1) = (  0.997506  0.000000  0.000000 )
               b(2) = (  0.000000  1.000000  0.000000 )
               b(3) = (  0.000000  0.000000  1.000000 )

     PseudoPot. # 1 for Pd read from file:
     /rds/homes/b/bxp912/pp/Pd.pbe-spn-kjpaw_psl.1.0.0.UPF
     MD5 check sum: 790f2ebce206edfd9790dcb9844eca51
     Pseudo is Projector augmented-wave + core cor, Zval = 18.0
     Generated using "atomic" code by A. Dal Corso v.6.3
     Shape of augmentation charge: PSQ
     Using radial grid of 1235 points,  6 beta functions with:
                l(1) =   0
                l(2) =   0
                l(3) =   1
                l(4) =   1
                l(5) =   2
                l(6) =   2
     Q(r) pseudized with 0 coefficients

     atomic species   valence    mass     pseudopotential
        Pd            18.00   106.42000     Pd( 1.00)

     16 Sym. Ops., with inversion, found

   Cartesian axes

     site n.     atom                  positions (alat units)
         1           Pd  tau(   1) = (   0.0000000   0.0000000   0.0000000  )
         2           Pd  tau(   2) = (   0.2506295   0.2500045   0.0000000  )
         3           Pd  tau(   3) = (   0.2506295   0.0000000   0.2500040  )
         4           Pd  tau(   4) = (   0.0000000   0.2500045   0.2500040  )
         5           Pd  tau(   5) = (   0.0000000   0.0000000   0.4999990  )
         6           Pd  tau(   6) = (   0.2506366   0.2500116   0.4999990  )
         7           Pd  tau(   7) = (   0.2506295   0.0000000   0.7499950  )
         8           Pd  tau(   8) = (   0.0000000   0.2500045   0.7499950  )
         9           Pd  tau(   9) = (   0.0000000   0.4999998   0.0000000  )
        10           Pd  tau(  10) = (   0.2506295   0.7499952   0.0000000  )
        11           Pd  tau(  11) = (   0.2506366   0.4999998   0.2500109  )
        12           Pd  tau(  12) = (   0.0000000   0.7499952   0.2500040  )
        13           Pd  tau(  13) = (   0.0000000   0.4999998   0.4999990  )
        14           Pd  tau(  14) = (   0.2506366   0.7499881   0.4999990  )
        15           Pd  tau(  15) = (   0.2506366   0.4999998   0.7499881  )
        16           Pd  tau(  16) = (   0.0000000   0.7499952   0.7499950  )
        17           Pd  tau(  17) = (   0.5012498   0.0000000   0.0000000  )
        18           Pd  tau(  18) = (   0.7518702   0.2500045   0.0000000  )
        19           Pd  tau(  19) = (   0.7518702   0.0000000   0.2500040  )
        20           Pd  tau(  20) = (   0.5012498   0.2500116   0.2500109  )
        21           Pd  tau(  21) = (   0.5012498   0.0000000   0.4999990  )
        22           Pd  tau(  22) = (   0.7518631   0.2500116   0.4999990  )
        23           Pd  tau(  23) = (   0.7518702   0.0000000   0.7499950  )
        24           Pd  tau(  24) = (   0.5012498   0.2500116   0.7499881  )
        25           Pd  tau(  25) = (   0.5012498   0.4999998   0.0000000  )
        26           Pd  tau(  26) = (   0.7518702   0.7499952   0.0000000  )
        27           Pd  tau(  27) = (   0.7518631   0.4999998   0.2500109  )
        28           Pd  tau(  28) = (   0.5012498   0.7499881   0.2500109  )
        29           Pd  tau(  29) = (   0.5012498   0.4999998   0.4999990  )
        30           Pd  tau(  30) = (   0.7518631   0.7499881   0.4999990  )
        31           Pd  tau(  31) = (   0.7518631   0.4999998   0.7499881  )
        32           Pd  tau(  32) = (   0.5012498   0.7499881   0.7499881  )

     number of k points=    75  Marzari-Vanderbilt smearing, width (Ry)=  0.0400
                       cart. coord. in units 2pi/alat
        k(    1) = (   0.0554170   0.0555556   0.0555556), wk =   0.0219479
        k(    2) = (   0.0554170   0.0555556   0.1666667), wk =   0.0438957
        k(    3) = (   0.0554170   0.0555556   0.2777778), wk =   0.0438957
        k(    4) = (   0.0554170   0.0555556   0.3888889), wk =   0.0438957
        k(    5) = (   0.0554170   0.0555556  -0.5000000), wk =   0.0219479
        k(    6) = (   0.0554170   0.1666667   0.1666667), wk =   0.0219479
        k(    7) = (   0.0554170   0.1666667   0.2777778), wk =   0.0438957
        k(    8) = (   0.0554170   0.1666667   0.3888889), wk =   0.0438957
        k(    9) = (   0.0554170   0.1666667  -0.5000000), wk =   0.0219479
        k(   10) = (   0.0554170   0.2777778   0.2777778), wk =   0.0219479
        k(   11) = (   0.0554170   0.2777778   0.3888889), wk =   0.0438957
        k(   12) = (   0.0554170   0.2777778  -0.5000000), wk =   0.0219479
        k(   13) = (   0.0554170   0.3888889   0.3888889), wk =   0.0219479
        k(   14) = (   0.0554170   0.3888889  -0.5000000), wk =   0.0219479
        k(   15) = (   0.0554170  -0.5000000  -0.5000000), wk =   0.0054870
        k(   16) = (   0.1662510   0.0555556   0.0555556), wk =   0.0219479
        k(   17) = (   0.1662510   0.0555556   0.1666667), wk =   0.0438957
        k(   18) = (   0.1662510   0.0555556   0.2777778), wk =   0.0438957
        k(   19) = (   0.1662510   0.0555556   0.3888889), wk =   0.0438957
        k(   20) = (   0.1662510   0.0555556  -0.5000000), wk =   0.0219479
        k(   21) = (   0.1662510   0.1666667   0.1666667), wk =   0.0219479
        k(   22) = (   0.1662510   0.1666667   0.2777778), wk =   0.0438957
        k(   23) = (   0.1662510   0.1666667   0.3888889), wk =   0.0438957
        k(   24) = (   0.1662510   0.1666667  -0.5000000), wk =   0.0219479
        k(   25) = (   0.1662510   0.2777778   0.2777778), wk =   0.0219479
        k(   26) = (   0.1662510   0.2777778   0.3888889), wk =   0.0438957
        k(   27) = (   0.1662510   0.2777778  -0.5000000), wk =   0.0219479
        k(   28) = (   0.1662510   0.3888889   0.3888889), wk =   0.0219479
        k(   29) = (   0.1662510   0.3888889  -0.5000000), wk =   0.0219479
        k(   30) = (   0.1662510  -0.5000000  -0.5000000), wk =   0.0054870
        k(   31) = (   0.2770851   0.0555556   0.0555556), wk =   0.0219479
        k(   32) = (   0.2770851   0.0555556   0.1666667), wk =   0.0438957
        k(   33) = (   0.2770851   0.0555556   0.2777778), wk =   0.0438957
        k(   34) = (   0.2770851   0.0555556   0.3888889), wk =   0.0438957
        k(   35) = (   0.2770851   0.0555556  -0.5000000), wk =   0.0219479
        k(   36) = (   0.2770851   0.1666667   0.1666667), wk =   0.0219479
        k(   37) = (   0.2770851   0.1666667   0.2777778), wk =   0.0438957
        k(   38) = (   0.2770851   0.1666667   0.3888889), wk =   0.0438957
        k(   39) = (   0.2770851   0.1666667  -0.5000000), wk =   0.0219479
        k(   40) = (   0.2770851   0.2777778   0.2777778), wk =   0.0219479
        k(   41) = (   0.2770851   0.2777778   0.3888889), wk =   0.0438957
        k(   42) = (   0.2770851   0.2777778  -0.5000000), wk =   0.0219479
        k(   43) = (   0.2770851   0.3888889   0.3888889), wk =   0.0219479
        k(   44) = (   0.2770851   0.3888889  -0.5000000), wk =   0.0219479
        k(   45) = (   0.2770851  -0.5000000  -0.5000000), wk =   0.0054870
        k(   46) = (   0.3879191   0.0555556   0.0555556), wk =   0.0219479
        k(   47) = (   0.3879191   0.0555556   0.1666667), wk =   0.0438957
        k(   48) = (   0.3879191   0.0555556   0.2777778), wk =   0.0438957
        k(   49) = (   0.3879191   0.0555556   0.3888889), wk =   0.0438957
        k(   50) = (   0.3879191   0.0555556  -0.5000000), wk =   0.0219479
        k(   51) = (   0.3879191   0.1666667   0.1666667), wk =   0.0219479
        k(   52) = (   0.3879191   0.1666667   0.2777778), wk =   0.0438957
        k(   53) = (   0.3879191   0.1666667   0.3888889), wk =   0.0438957
        k(   54) = (   0.3879191   0.1666667  -0.5000000), wk =   0.0219479
        k(   55) = (   0.3879191   0.2777778   0.2777778), wk =   0.0219479
        k(   56) = (   0.3879191   0.2777778   0.3888889), wk =   0.0438957
        k(   57) = (   0.3879191   0.2777778  -0.5000000), wk =   0.0219479
        k(   58) = (   0.3879191   0.3888889   0.3888889), wk =   0.0219479
        k(   59) = (   0.3879191   0.3888889  -0.5000000), wk =   0.0219479
        k(   60) = (   0.3879191  -0.5000000  -0.5000000), wk =   0.0054870
        k(   61) = (  -0.4987531   0.0555556   0.0555556), wk =   0.0109739
        k(   62) = (  -0.4987531   0.0555556   0.1666667), wk =   0.0219479
        k(   63) = (  -0.4987531   0.0555556   0.2777778), wk =   0.0219479
        k(   64) = (  -0.4987531   0.0555556   0.3888889), wk =   0.0219479
        k(   65) = (  -0.4987531   0.0555556  -0.5000000), wk =   0.0109739
        k(   66) = (  -0.4987531   0.1666667   0.1666667), wk =   0.0109739
        k(   67) = (  -0.4987531   0.1666667   0.2777778), wk =   0.0219479
        k(   68) = (  -0.4987531   0.1666667   0.3888889), wk =   0.0219479
        k(   69) = (  -0.4987531   0.1666667  -0.5000000), wk =   0.0109739
        k(   70) = (  -0.4987531   0.2777778   0.2777778), wk =   0.0109739
        k(   71) = (  -0.4987531   0.2777778   0.3888889), wk =   0.0219479
        k(   72) = (  -0.4987531   0.2777778  -0.5000000), wk =   0.0109739
        k(   73) = (  -0.4987531   0.3888889   0.3888889), wk =   0.0109739
        k(   74) = (  -0.4987531   0.3888889  -0.5000000), wk =   0.0109739
        k(   75) = (  -0.4987531  -0.5000000  -0.5000000), wk =   0.0027435

     Check: negative/imaginary core charge=   -0.000002    0.000000

     Initial potential from superposition of free atoms

     starting charge  575.98776, renormalised to  576.00000
     Starting wfcs are  320 randomized atomic wfcs +   26 random wfcs
     Checking if some PAW data can be deallocated...

     Self-consistent Calculation

     iteration #  1     ecut=    71.00 Ry     beta= 0.10
     Davidson diagonalization with overlap
     ethr =  1.00E-02,  avg # of iterations =  3.1

     Threshold (ethr) on eigenvalues was too large:
     Diagonalizing with lowered threshold

     Davidson diagonalization with overlap
     ethr =  8.44E-05,  avg # of iterations =  3.1

     total energy              =  -16385.02177507 Ry
     Harris-Foulkes estimate   =  -16385.09027681 Ry
     estimated scf accuracy    <       0.48045190 Ry

[...]

     total energy              =  -16384.95889012 Ry
     Harris-Foulkes estimate   =  -16384.95888728 Ry
     estimated scf accuracy    <       0.00000363 Ry

     iteration # 11     ecut=    71.00 Ry     beta= 0.10
     Davidson diagonalization with overlap
     ethr =  6.29E-10,  avg # of iterations =  1.0

     End of self-consistent calculation

          k = 0.0554 0.0556 0.0556 ( 33063 PWs)   bands (ev):

   -64.9273 -64.8987 -64.8984 -64.8984 -64.8932 -64.8929 -64.8929 -64.8829
   -64.8828 -64.8827 -64.8805 -64.8802 -64.8800 -64.8799 -64.8798 -64.8798
   -64.8797 -64.8795 -64.8795 -64.8790 -64.8773 -64.8772 -64.8771 -64.8651
   -64.8644 -64.8644 -64.8642 -64.8641 -64.8640 -64.8639 -64.8638 -64.8634
   -30.8102 -30.8102 -30.8101 -30.8083 -30.7901 -30.7901 -30.7892 -30.7138
   -30.7121 -30.7121 -30.7095 -30.7095 -30.7079 -30.7078 -30.7077 -30.7077
   -30.7018 -30.7000 -30.7000 -30.6963 -30.6963 -30.6951 -30.6950 -30.6948
   -30.6947 -30.6779 -30.6779 -30.6764 -30.6764 -30.6762 -30.6762 -30.6364
   -30.6363 -30.6357 -30.6122 -30.6121 -30.6115 -30.6061 -30.6061 -30.6055
   -30.5969 -30.5969 -30.5967 -30.5967 -30.5961 -30.5961 -30.5820 -30.5819
   -30.5819 -30.5816 -30.5813 -30.5812 -30.5811 -30.5810 -30.5808 -30.5801
   -30.5800 -30.5792 -30.5786 -30.5785 -30.5776 -30.5167 -30.5167 -30.5153
   -30.5152 -30.5152 -30.5150 -30.5043 -30.5042 -30.5031 -30.5031 -30.5030
   -30.5030 -30.5003 -30.5003 -30.4993 -30.4964 -30.4958 -30.4957 -30.4952
   -30.4952 -30.4951 -30.4948 -30.4944 -30.4944 -30.4942 -30.4941 -30.4941
   -30.4937 -30.4927 -30.4882 -30.4881 -30.4872 -30.4426 -30.4403 -30.4402
    12.2481  14.0063  14.0064  14.0065  14.0735  14.0872  14.0872  14.0872
    14.2689  14.2774  14.2775  14.2805  14.2806  14.2806  14.4644  14.4727
    14.4727  15.0107  15.0107  15.0191  15.0192  15.0193  15.0194  15.1638
    15.1722  15.1723  15.3173  15.3178  15.3179  15.3485  15.3587  15.3588
    15.3993  15.3993  15.4006  15.4007  15.4009  15.4009  15.4009  15.4032
    15.4033  15.7397  15.7397  15.7449  15.7449  15.7466  15.7467  15.8451
    15.8534  15.8534  15.8666  15.8666  15.8750  15.8751  15.8762  15.8762
    15.9229  15.9325  15.9325  16.0936  16.0936  16.0995  16.0995  16.1019
    16.1020  16.2020  16.2021  16.2068  16.2069  16.2071  16.2072  16.2073
    16.2107  16.2107  16.3151  16.3151  16.3164  16.3689  16.3813  16.3813
    16.3896  16.4090  16.4090  16.4110  16.4216  16.4228  16.4466  16.4554
    17.2340  17.2465  17.2466  17.3011  17.3011  17.3066  17.3735  17.3735
    17.3742  17.3743  17.3785  17.3785  17.3800  17.3801  17.3841  17.4202
    17.4339  17.4340  17.5290  17.5291  17.5382  17.6496  17.6497  17.6521
    17.7723  17.7724  17.7807  17.8300  17.8301  17.8374  17.9041  17.9042
    17.9064  17.9064  17.9067  17.9067  17.9244  17.9244  17.9254  17.9603
    17.9775  17.9775  17.9779  17.9779  17.9838  17.9843  17.9843  18.0865
    18.0865  18.0929  18.4710  18.4710  18.4814  18.5728  18.5729  18.5817
    18.9555  18.9556  18.9625  19.0807  19.0807  19.0819  19.1030  19.1127
    19.1231  19.1305  19.1305  19.3558  19.3570  19.3570  19.4067  19.4068
    19.4073  19.4074  19.4134  19.4158  19.4159  19.4197  19.4197  20.0849
    20.3897  20.3898  20.3899  20.9026  20.9026  20.9167  21.4105  21.4105
    21.4114  21.4114  21.4279  21.4279  21.9385  21.9386  21.9579  22.5001
    22.5472  22.5472  26.2692  26.2692  26.2696  26.4262  27.4021  27.4022
    27.4238  27.4238  27.4455  27.4456  28.0938  28.0939  28.1142  28.1142
    28.1375  28.1376  29.5092  29.5092  29.5182  29.5182  29.5394  29.5394
    29.6396  29.7055  29.7055  30.6195  30.6729  30.6730  30.6805  30.6806
    30.6966  30.6967

[...]

          k = 0.3879-0.5000-0.5000 ( 33108 PWs)   bands (ev):

[...]

          k =-0.4988 0.0556 0.0556 ( 33088 PWs)   bands (ev):

[...]

          k =-0.4988-0.5000-0.5000 ( 33064 PWs)   bands (ev):

   -64.9044 -64.9042 -64.9041 -64.9039 -64.9037 -64.9034 -64.9033 -64.9032
   -64.8731 -64.8729 -64.8728 -64.8726 -64.8725 -64.8724 -64.8723 -64.8722
   -64.8722 -64.8721 -64.8721 -64.8720 -64.8719 -64.8718 -64.8718 -64.8717
   -64.8716 -64.8715 -64.8714 -64.8713 -64.8713 -64.8712 -64.8711 -64.8709
   -30.7496 -30.7495 -30.7495 -30.7495 -30.7494 -30.7493 -30.7492 -30.7492
   -30.7492 -30.7491 -30.7490 -30.7490 -30.7490 -30.7489 -30.7489 -30.7489
   -30.7484 -30.7483 -30.7481 -30.7481 -30.7479 -30.7478 -30.7477 -30.7476
   -30.6275 -30.6274 -30.6274 -30.6273 -30.6272 -30.6272 -30.6271 -30.6271
   -30.5909 -30.5908 -30.5908 -30.5907 -30.5906 -30.5906 -30.5905 -30.5905
   -30.5905 -30.5905 -30.5905 -30.5904 -30.5904 -30.5904 -30.5904 -30.5903
   -30.5903 -30.5903 -30.5902 -30.5902 -30.5902 -30.5902 -30.5901 -30.5900
   -30.5375 -30.5374 -30.5374 -30.5374 -30.5372 -30.5372 -30.5372 -30.5372
   -30.5369 -30.5369 -30.5369 -30.5369 -30.5367 -30.5367 -30.5366 -30.5366
   -30.5358 -30.5358 -30.5358 -30.5358 -30.5356 -30.5356 -30.5356 -30.5356
   -30.4676 -30.4675 -30.4674 -30.4674 -30.4671 -30.4671 -30.4669 -30.4668
   -30.4665 -30.4665 -30.4664 -30.4664 -30.4664 -30.4663 -30.4663 -30.4662
    13.8800  13.8804  13.8806  13.8808  13.8808  13.8811  13.8813  13.8815
    14.7285  14.7286  14.7287  14.7288  14.7288  14.7289  14.7290  14.7290
    14.7298  14.7299  14.7299  14.7299  14.7300  14.7300  14.7301  14.7301
    14.7304  14.7304  14.7305  14.7305  14.7306  14.7306  14.7306  14.7307
    15.4827  15.4828  15.4830  15.4830  15.4831  15.4831  15.4832  15.4834
    15.4835  15.4835  15.4836  15.4838  15.4838  15.4839  15.4839  15.4839
    15.4848  15.4851  15.4852  15.4852  15.4854  15.4854  15.4856  15.4858
    16.4116  16.4118  16.4118  16.4118  16.4118  16.4119  16.4119  16.4119
    16.7091  16.7092  16.7092  16.7093  16.7094  16.7094  16.7094  16.7096
    16.7290  16.7290  16.7291  16.7292  16.7292  16.7293  16.7293  16.7295
    16.8964  16.8965  16.8966  16.8967  16.8967  16.8968  16.8968  16.8970
    16.9075  16.9076  16.9076  16.9077  16.9078  16.9078  16.9079  16.9079
    16.9079  16.9080  16.9080  16.9081  16.9081  16.9082  16.9082  16.9084
    17.6167  17.6168  17.6169  17.6169  17.6169  17.6170  17.6170  17.6171
    17.6171  17.6172  17.6173  17.6173  17.6173  17.6174  17.6174  17.6175
    17.6265  17.6265  17.6266  17.6267  17.6269  17.6270  17.6271  17.6272
    18.1205  18.1207  18.1207  18.1208  18.1209  18.1211  18.1211  18.1212
    18.1271  18.1272  18.1272  18.1273  18.1276  18.1277  18.1278  18.1279
    19.2094  19.2094  19.2095  19.2096  19.2096  19.2097  19.2098  19.2098
    19.2130  19.2131  19.2131  19.2131  19.2132  19.2132  19.2132  19.2133
    19.2133  19.2134  19.2134  19.2134  19.2134  19.2135  19.2135  19.2135
    22.7682  22.7683  22.7686  22.7687  22.7688  22.7689  22.7692  22.7693
    22.7888  22.7889  22.7890  22.7891  22.7891  22.7892  22.7893  22.7893
    22.7894  22.7895  22.7896  22.7896  22.7897  22.7897  22.7898  22.7899
    28.2106  28.2107  28.2108  28.2108  28.2109  28.2109  28.2111  28.2112
    28.2112  28.2113  28.2114  28.2115  28.2116  28.2116  28.2117  28.2117
    28.2340  28.2342  28.2342  28.2343  28.2344  28.2344  28.2345  28.2346
    33.5314  33.5335

     the Fermi energy is    19.2336 ev

!    total energy              =  -16384.95890141 Ry
     Harris-Foulkes estimate   =  -16384.95889040 Ry
     estimated scf accuracy    <       0.00000050 Ry

     total all-electron energy =   -322945.812609 Ry

     The total energy is the sum of the following terms:

     one-electron contribution =   -2492.80145116 Ry
     hartree contribution      =    1663.06971153 Ry
     xc contribution           =    -986.46843593 Ry
     ewald contribution        =   -6401.36857235 Ry
     one-center paw contrib.   =   -8167.42385224 Ry
     smearing contrib. (-TS)   =       0.03369874 Ry

     convergence has been achieved in  11 iterations

     Forces acting on atoms (cartesian axes, Ry/au):

     atom    1 type  1   force =     0.00000000    0.00000000    0.00000000
     atom    2 type  1   force =     0.00000516    0.00007462    0.00000000
     atom    3 type  1   force =     0.00000516    0.00000000    0.00007462
     atom    4 type  1   force =     0.00000000    0.00005402    0.00005402
     atom    5 type  1   force =     0.00000000    0.00000000   -0.00000000
     atom    6 type  1   force =     0.00006014    0.00010139   -0.00000000
     atom    7 type  1   force =     0.00000516    0.00000000   -0.00007462
     atom    8 type  1   force =     0.00000000    0.00005402   -0.00005402
     atom    9 type  1   force =     0.00000000    0.00000000    0.00000000
     atom   10 type  1   force =     0.00000516   -0.00007462   -0.00000000
     atom   11 type  1   force =     0.00006014    0.00000000    0.00010139
     atom   12 type  1   force =     0.00000000   -0.00005402    0.00005402
     atom   13 type  1   force =     0.00000000    0.00000000    0.00000000
     atom   14 type  1   force =     0.00006014   -0.00010139    0.00000000
     atom   15 type  1   force =     0.00006014    0.00000000   -0.00010139
     atom   16 type  1   force =     0.00000000   -0.00005402   -0.00005402
     atom   17 type  1   force =     0.00000000    0.00000000   -0.00000000
     atom   18 type  1   force =    -0.00000516    0.00007462    0.00000000
     atom   19 type  1   force =    -0.00000516    0.00000000    0.00007462
     atom   20 type  1   force =     0.00000000    0.00013535    0.00013535
     atom   21 type  1   force =     0.00000000    0.00000000    0.00000000
     atom   22 type  1   force =    -0.00006014    0.00010139    0.00000000
     atom   23 type  1   force =    -0.00000516    0.00000000   -0.00007462
     atom   24 type  1   force =     0.00000000    0.00013535   -0.00013535
     atom   25 type  1   force =     0.00000000    0.00000000    0.00000000
     atom   26 type  1   force =    -0.00000516   -0.00007462    0.00000000
     atom   27 type  1   force =    -0.00006014    0.00000000    0.00010139
     atom   28 type  1   force =     0.00000000   -0.00013535    0.00013535
     atom   29 type  1   force =     0.00000000    0.00000000    0.00000000
     atom   30 type  1   force =    -0.00006014   -0.00010139   -0.00000000
     atom   31 type  1   force =    -0.00006014    0.00000000   -0.00010139
     atom   32 type  1   force =     0.00000000   -0.00013535   -0.00013535

     Total force =     0.000571     Total SCF correction =     0.004883
     SCF correction compared to forces is large: reduce conv_thr to get better values

     Computing stress (Cartesian axis) and pressure

          total   stress  (Ry/bohr**3)                   (kbar)     P=   -3.20
  -0.00003034   0.00000000   0.00000000         -4.46      0.00      0.00
   0.00000000  -0.00001742   0.00000000          0.00     -2.56      0.00
   0.00000000   0.00000000  -0.00001742          0.00      0.00     -2.56

     Writing output data file ndyXDwerBXnewmdc.save/

     General routines

     Parallel routines

   This run was terminated on:  11:57:59  11Nov2020

   JOB DONE.