     Program PWSCF v.6.3 starts on 11Nov2020 at 15:19:33

     R & G space division:  proc/nbgrp/npool/nimage =      20
     Reading input from wd/ec/ec_2_004.in
Warning: card &IONS ignored
Warning: card ION_DYNAMICS = 'BFGS', ignored
Warning: card / ignored
Warning: card &CELL ignored
Warning: card CELL_DYNAMICS = 'BFGS', ignored
Warning: card CELL_FACTOR = 2.0, ignored
Warning: card PRESS = 0.0, ignored
Warning: card / ignored

     Current dimensions of program PWSCF are:
     Max number of different atomic species (ntypx) = 10
     Max number of k-points (npk) =  40000
     Max angular momentum in pseudopotentials (lmaxx) =  3
               file Pd.pbe-spn-kjpaw_psl.1.0.0.UPF: wavefunction(s)  4S 5S 4D renormalized

     Subspace diagonalization in iterative solution of the eigenvalue problem:
     a serial algorithm will be used

     bravais-lattice index     =            0
     lattice parameter (alat)  =      14.8394  a.u.
     unit-cell volume          =    3275.9340 (a.u.)^3
     number of atoms/cell      =           32
     number of atomic types    =            1
     number of electrons       =       576.00
     number of Kohn-Sham states=          346
     kinetic-energy cutoff     =      71.0000  Ry
     charge density cutoff     =     430.0000  Ry
     convergence threshold     =      1.0E-06
     mixing beta               =       0.1000
     number of iterations used =           10  plain     mixing
     Exchange-correlation      = SLA PW PBX PBC ( 1  4  3  4 0 0)

     celldm(1)=  14.839420  celldm(2)=   0.000000  celldm(3)=   0.000000
     celldm(4)=   0.000000  celldm(5)=   0.000000  celldm(6)=   0.000000

     crystal axes: (cart. coord. in units of alat)
               a(1) = (   1.000000   0.000000   0.000000 )
               a(2) = (   0.000000   1.002500   0.000000 )
               a(3) = (   0.000000   0.000000   1.000000 )

     reciprocal axes: (cart. coord. in units 2 pi/alat)
               b(1) = (  1.000000  0.000000  0.000000 )
               b(2) = (  0.000000  0.997506  0.000000 )
               b(3) = (  0.000000  0.000000  1.000000 )

     PseudoPot. # 1 for Pd read from file:
     /rds/homes/b/bxp912/pp/Pd.pbe-spn-kjpaw_psl.1.0.0.UPF
     MD5 check sum: 790f2ebce206edfd9790dcb9844eca51
     Pseudo is Projector augmented-wave + core cor, Zval = 18.0
     Generated using "atomic" code by A. Dal Corso v.6.3
     Shape of augmentation charge: PSQ
     Using radial grid of 1235 points,  6 beta functions with:
                l(1) =   0
                l(2) =   0
                l(3) =   1
                l(4) =   1
                l(5) =   2
                l(6) =   2
     Q(r) pseudized with 0 coefficients

     atomic species   valence    mass     pseudopotential
        Pd            18.00   106.42000     Pd( 1.00)

     16 Sym. Ops., with inversion, found

   Cartesian axes

     site n.     atom                  positions (alat units)
         1           Pd  tau(   1) = (   0.0000000   0.0000000   0.0000000  )
         2           Pd  tau(   2) = (   0.2500045   0.2506295   0.0000000  )
         3           Pd  tau(   3) = (   0.2500045   0.0000000   0.2500040  )
         4           Pd  tau(   4) = (   0.0000000   0.2506295   0.2500040  )
         5           Pd  tau(   5) = (   0.0000000   0.0000000   0.4999990  )
         6           Pd  tau(   6) = (   0.2500116   0.2506366   0.4999990  )
         7           Pd  tau(   7) = (   0.2500045   0.0000000   0.7499950  )
         8           Pd  tau(   8) = (   0.0000000   0.2506295   0.7499950  )
         9           Pd  tau(   9) = (   0.0000000   0.5012498   0.0000000  )
        10           Pd  tau(  10) = (   0.2500045   0.7518702   0.0000000  )
        11           Pd  tau(  11) = (   0.2500116   0.5012498   0.2500109  )
        12           Pd  tau(  12) = (   0.0000000   0.7518702   0.2500040  )
        13           Pd  tau(  13) = (   0.0000000   0.5012498   0.4999990  )
        14           Pd  tau(  14) = (   0.2500116   0.7518631   0.4999990  )
        15           Pd  tau(  15) = (   0.2500116   0.5012498   0.7499881  )
        16           Pd  tau(  16) = (   0.0000000   0.7518702   0.7499950  )
        17           Pd  tau(  17) = (   0.4999998   0.0000000   0.0000000  )
        18           Pd  tau(  18) = (   0.7499952   0.2506295   0.0000000  )
        19           Pd  tau(  19) = (   0.7499952   0.0000000   0.2500040  )
        20           Pd  tau(  20) = (   0.4999998   0.2506366   0.2500109  )
        21           Pd  tau(  21) = (   0.4999998   0.0000000   0.4999990  )
        22           Pd  tau(  22) = (   0.7499881   0.2506366   0.4999990  )
        23           Pd  tau(  23) = (   0.7499952   0.0000000   0.7499950  )
        24           Pd  tau(  24) = (   0.4999998   0.2506366   0.7499881  )
        25           Pd  tau(  25) = (   0.4999998   0.5012498   0.0000000  )
        26           Pd  tau(  26) = (   0.7499952   0.7518702   0.0000000  )
        27           Pd  tau(  27) = (   0.7499881   0.5012498   0.2500109  )
        28           Pd  tau(  28) = (   0.4999998   0.7518631   0.2500109  )
        29           Pd  tau(  29) = (   0.4999998   0.5012498   0.4999990  )
        30           Pd  tau(  30) = (   0.7499881   0.7518631   0.4999990  )
        31           Pd  tau(  31) = (   0.7499881   0.5012498   0.7499881  )
        32           Pd  tau(  32) = (   0.4999998   0.7518631   0.7499881  )

     number of k points=    75  Marzari-Vanderbilt smearing, width (Ry)=  0.0400
                       cart. coord. in units 2pi/alat
        k(    1) = (   0.0555556   0.0554170   0.0555556), wk =   0.0219479
        k(    2) = (   0.0555556   0.0554170   0.1666667), wk =   0.0438957
        k(    3) = (   0.0555556   0.0554170   0.2777778), wk =   0.0438957
        k(    4) = (   0.0555556   0.0554170   0.3888889), wk =   0.0438957
        k(    5) = (   0.0555556   0.0554170  -0.5000000), wk =   0.0219479
        k(    6) = (   0.0555556   0.1662510   0.0555556), wk =   0.0219479
        k(    7) = (   0.0555556   0.1662510   0.1666667), wk =   0.0438957
        k(    8) = (   0.0555556   0.1662510   0.2777778), wk =   0.0438957
        k(    9) = (   0.0555556   0.1662510   0.3888889), wk =   0.0438957
        k(   10) = (   0.0555556   0.1662510  -0.5000000), wk =   0.0219479
        k(   11) = (   0.0555556   0.2770851   0.0555556), wk =   0.0219479
        k(   12) = (   0.0555556   0.2770851   0.1666667), wk =   0.0438957
        k(   13) = (   0.0555556   0.2770851   0.2777778), wk =   0.0438957
        k(   14) = (   0.0555556   0.2770851   0.3888889), wk =   0.0438957
        k(   15) = (   0.0555556   0.2770851  -0.5000000), wk =   0.0219479
        k(   16) = (   0.0555556   0.3879191   0.0555556), wk =   0.0219479
        k(   17) = (   0.0555556   0.3879191   0.1666667), wk =   0.0438957
        k(   18) = (   0.0555556   0.3879191   0.2777778), wk =   0.0438957
        k(   19) = (   0.0555556   0.3879191   0.3888889), wk =   0.0438957
        k(   20) = (   0.0555556   0.3879191  -0.5000000), wk =   0.0219479
        k(   21) = (   0.0555556  -0.4987531   0.0555556), wk =   0.0109739
        k(   22) = (   0.0555556  -0.4987531   0.1666667), wk =   0.0219479
        k(   23) = (   0.0555556  -0.4987531   0.2777778), wk =   0.0219479
        k(   24) = (   0.0555556  -0.4987531   0.3888889), wk =   0.0219479
        k(   25) = (   0.0555556  -0.4987531  -0.5000000), wk =   0.0109739
        k(   26) = (   0.1666667   0.0554170   0.1666667), wk =   0.0219479
        k(   27) = (   0.1666667   0.0554170   0.2777778), wk =   0.0438957
        k(   28) = (   0.1666667   0.0554170   0.3888889), wk =   0.0438957
        k(   29) = (   0.1666667   0.0554170  -0.5000000), wk =   0.0219479
        k(   30) = (   0.1666667   0.1662510   0.1666667), wk =   0.0219479
        k(   31) = (   0.1666667   0.1662510   0.2777778), wk =   0.0438957
        k(   32) = (   0.1666667   0.1662510   0.3888889), wk =   0.0438957
        k(   33) = (   0.1666667   0.1662510  -0.5000000), wk =   0.0219479
        k(   34) = (   0.1666667   0.2770851   0.1666667), wk =   0.0219479
        k(   35) = (   0.1666667   0.2770851   0.2777778), wk =   0.0438957
        k(   36) = (   0.1666667   0.2770851   0.3888889), wk =   0.0438957
        k(   37) = (   0.1666667   0.2770851  -0.5000000), wk =   0.0219479
        k(   38) = (   0.1666667   0.3879191   0.1666667), wk =   0.0219479
        k(   39) = (   0.1666667   0.3879191   0.2777778), wk =   0.0438957
        k(   40) = (   0.1666667   0.3879191   0.3888889), wk =   0.0438957
        k(   41) = (   0.1666667   0.3879191  -0.5000000), wk =   0.0219479
        k(   42) = (   0.1666667  -0.4987531   0.1666667), wk =   0.0109739
        k(   43) = (   0.1666667  -0.4987531   0.2777778), wk =   0.0219479
        k(   44) = (   0.1666667  -0.4987531   0.3888889), wk =   0.0219479
        k(   45) = (   0.1666667  -0.4987531  -0.5000000), wk =   0.0109739
        k(   46) = (   0.2777778   0.0554170   0.2777778), wk =   0.0219479
        k(   47) = (   0.2777778   0.0554170   0.3888889), wk =   0.0438957
        k(   48) = (   0.2777778   0.0554170  -0.5000000), wk =   0.0219479
        k(   49) = (   0.2777778   0.1662510   0.2777778), wk =   0.0219479
        k(   50) = (   0.2777778   0.1662510   0.3888889), wk =   0.0438957
        k(   51) = (   0.2777778   0.1662510  -0.5000000), wk =   0.0219479
        k(   52) = (   0.2777778   0.2770851   0.2777778), wk =   0.0219479
        k(   53) = (   0.2777778   0.2770851   0.3888889), wk =   0.0438957
        k(   54) = (   0.2777778   0.2770851  -0.5000000), wk =   0.0219479
        k(   55) = (   0.2777778   0.3879191   0.2777778), wk =   0.0219479
        k(   56) = (   0.2777778   0.3879191   0.3888889), wk =   0.0438957
        k(   57) = (   0.2777778   0.3879191  -0.5000000), wk =   0.0219479
        k(   58) = (   0.2777778  -0.4987531   0.2777778), wk =   0.0109739
        k(   59) = (   0.2777778  -0.4987531   0.3888889), wk =   0.0219479
        k(   60) = (   0.2777778  -0.4987531  -0.5000000), wk =   0.0109739
        k(   61) = (   0.3888889   0.0554170   0.3888889), wk =   0.0219479
        k(   62) = (   0.3888889   0.0554170  -0.5000000), wk =   0.0219479
        k(   63) = (   0.3888889   0.1662510   0.3888889), wk =   0.0219479
        k(   64) = (   0.3888889   0.1662510  -0.5000000), wk =   0.0219479
        k(   65) = (   0.3888889   0.2770851   0.3888889), wk =   0.0219479
        k(   66) = (   0.3888889   0.2770851  -0.5000000), wk =   0.0219479
        k(   67) = (   0.3888889   0.3879191   0.3888889), wk =   0.0219479
        k(   68) = (   0.3888889   0.3879191  -0.5000000), wk =   0.0219479
        k(   69) = (   0.3888889  -0.4987531   0.3888889), wk =   0.0109739
        k(   70) = (   0.3888889  -0.4987531  -0.5000000), wk =   0.0109739
        k(   71) = (  -0.5000000   0.0554170  -0.5000000), wk =   0.0054870
        k(   72) = (  -0.5000000   0.1662510  -0.5000000), wk =   0.0054870
        k(   73) = (  -0.5000000   0.2770851  -0.5000000), wk =   0.0054870
        k(   74) = (  -0.5000000   0.3879191  -0.5000000), wk =   0.0054870
        k(   75) = (  -0.5000000  -0.4987531  -0.5000000), wk =   0.0027435

     Check: negative/imaginary core charge=   -0.000002    0.000000

     Initial potential from superposition of free atoms

     starting charge  575.98776, renormalised to  576.00000
     Starting wfcs are  320 randomized atomic wfcs +   26 random wfcs
     Checking if some PAW data can be deallocated...

     Self-consistent Calculation

     iteration #  1     ecut=    71.00 Ry     beta= 0.10
     Davidson diagonalization with overlap
     ethr =  1.00E-02,  avg # of iterations =  3.1

     Threshold (ethr) on eigenvalues was too large:
     Diagonalizing with lowered threshold

     Davidson diagonalization with overlap
     ethr =  8.45E-05,  avg # of iterations =  3.0

     total energy              =  -16385.02171147 Ry
     Harris-Foulkes estimate   =  -16385.09023294 Ry
     estimated scf accuracy    <       0.48059442 Ry

[...]

     total energy              =  -16384.95889028 Ry
     Harris-Foulkes estimate   =  -16384.95888742 Ry
     estimated scf accuracy    <       0.00000115 Ry

     iteration # 11     ecut=    71.00 Ry     beta= 0.10
     Davidson diagonalization with overlap
     ethr =  1.99E-10,  avg # of iterations =  2.0

     End of self-consistent calculation

          k = 0.0556 0.0554 0.0556 ( 33063 PWs)   bands (ev):

   -64.9275 -64.8989 -64.8987 -64.8986 -64.8935 -64.8932 -64.8931 -64.8831
   -64.8830 -64.8830 -64.8808 -64.8804 -64.8803 -64.8801 -64.8801 -64.8800
   -64.8800 -64.8798 -64.8797 -64.8792 -64.8775 -64.8774 -64.8774 -64.8653
   -64.8647 -64.8646 -64.8645 -64.8643 -64.8642 -64.8641 -64.8640 -64.8637
   -30.8104 -30.8104 -30.8103 -30.8085 -30.7903 -30.7903 -30.7894 -30.7140
   -30.7123 -30.7123 -30.7098 -30.7097 -30.7081 -30.7080 -30.7079 -30.7079
   -30.7020 -30.7002 -30.7002 -30.6965 -30.6965 -30.6953 -30.6953 -30.6949
   -30.6949 -30.6782 -30.6781 -30.6767 -30.6767 -30.6764 -30.6764 -30.6366
   -30.6366 -30.6359 -30.6124 -30.6124 -30.6117 -30.6063 -30.6063 -30.6057
   -30.5972 -30.5971 -30.5969 -30.5969 -30.5963 -30.5963 -30.5822 -30.5822
   -30.5821 -30.5819 -30.5815 -30.5814 -30.5813 -30.5812 -30.5811 -30.5802
   -30.5802 -30.5794 -30.5788 -30.5787 -30.5778 -30.5169 -30.5169 -30.5155
   -30.5155 -30.5154 -30.5153 -30.5045 -30.5045 -30.5033 -30.5033 -30.5033
   -30.5032 -30.5005 -30.5005 -30.4995 -30.4966 -30.4960 -30.4959 -30.4954
   -30.4954 -30.4953 -30.4950 -30.4947 -30.4946 -30.4944 -30.4943 -30.4943
   -30.4939 -30.4930 -30.4884 -30.4883 -30.4875 -30.4428 -30.4405 -30.4404
    12.2481  14.0063  14.0063  14.0064  14.0734  14.0871  14.0871  14.0871
    14.2689  14.2774  14.2774  14.2804  14.2805  14.2805  14.4643  14.4726
    14.4727  15.0106  15.0106  15.0190  15.0191  15.0192  15.0193  15.1637
    15.1721  15.1722  15.3172  15.3177  15.3178  15.3484  15.3586  15.3587
    15.3992  15.3992  15.4005  15.4006  15.4008  15.4008  15.4008  15.4031
    15.4032  15.7396  15.7396  15.7448  15.7448  15.7465  15.7466  15.8450
    15.8532  15.8533  15.8665  15.8665  15.8749  15.8750  15.8760  15.8761
    15.9228  15.9324  15.9324  16.0935  16.0935  16.0994  16.0994  16.1018
    16.1019  16.2019  16.2020  16.2067  16.2068  16.2070  16.2071  16.2073
    16.2106  16.2106  16.3150  16.3150  16.3163  16.3688  16.3812  16.3812
    16.3895  16.4089  16.4089  16.4109  16.4214  16.4227  16.4465  16.4553
    17.2339  17.2464  17.2464  17.3010  17.3010  17.3064  17.3733  17.3734
    17.3741  17.3741  17.3784  17.3784  17.3799  17.3800  17.3840  17.4201
    17.4338  17.4339  17.5289  17.5289  17.5381  17.6494  17.6495  17.6520
    17.7721  17.7722  17.7806  17.8298  17.8299  17.8373  17.9040  17.9041
    17.9062  17.9063  17.9065  17.9066  17.9242  17.9243  17.9253  17.9602
    17.9773  17.9774  17.9777  17.9778  17.9837  17.9841  17.9841  18.0863
    18.0864  18.0928  18.4708  18.4709  18.4812  18.5727  18.5727  18.5816
    18.9554  18.9554  18.9623  19.0805  19.0805  19.0817  19.1029  19.1125
    19.1229  19.1304  19.1304  19.3556  19.3569  19.3569  19.4066  19.4066
    19.4072  19.4072  19.4133  19.4157  19.4157  19.4196  19.4196  20.0849
    20.3897  20.3897  20.3899  20.9025  20.9025  20.9166  21.4104  21.4104
    21.4113  21.4113  21.4278  21.4278  21.9384  21.9385  21.9578  22.5001
    22.5472  22.5472  26.2691  26.2691  26.2695  26.4261  27.4021  27.4021
    27.4237  27.4237  27.4455  27.4455  28.0938  28.0938  28.1142  28.1142
    28.1374  28.1376  29.5091  29.5092  29.5182  29.5182  29.5394  29.5394
    29.6395  29.7054  29.7054  30.6198  30.6728  30.6729  30.6805  30.6805
    30.6966  30.6967

[...]

          k = 0.3889-0.4988-0.5000 ( 33096 PWs)   bands (ev):

[...]

          k =-0.5000 0.0554-0.5000 ( 33040 PWs)   bands (ev):

[...]

          k =-0.5000-0.4988-0.5000 ( 33064 PWs)   bands (ev):

   -64.9047 -64.9045 -64.9043 -64.9041 -64.9039 -64.9037 -64.9035 -64.9034
   -64.8733 -64.8731 -64.8730 -64.8728 -64.8727 -64.8726 -64.8725 -64.8725
   -64.8724 -64.8723 -64.8723 -64.8722 -64.8722 -64.8721 -64.8720 -64.8720
   -64.8719 -64.8717 -64.8717 -64.8716 -64.8715 -64.8715 -64.8713 -64.8711
   -30.7498 -30.7497 -30.7497 -30.7497 -30.7496 -30.7496 -30.7494 -30.7494
   -30.7494 -30.7493 -30.7493 -30.7492 -30.7492 -30.7491 -30.7491 -30.7491
   -30.7486 -30.7485 -30.7483 -30.7483 -30.7481 -30.7480 -30.7478 -30.7478
   -30.6277 -30.6277 -30.6276 -30.6275 -30.6274 -30.6274 -30.6273 -30.6273
   -30.5911 -30.5910 -30.5910 -30.5909 -30.5908 -30.5908 -30.5908 -30.5907
   -30.5907 -30.5907 -30.5907 -30.5906 -30.5906 -30.5906 -30.5906 -30.5905
   -30.5905 -30.5905 -30.5904 -30.5904 -30.5904 -30.5904 -30.5903 -30.5902
   -30.5377 -30.5377 -30.5376 -30.5376 -30.5375 -30.5374 -30.5374 -30.5374
   -30.5371 -30.5371 -30.5371 -30.5371 -30.5369 -30.5369 -30.5368 -30.5368
   -30.5360 -30.5360 -30.5360 -30.5360 -30.5359 -30.5359 -30.5358 -30.5358
   -30.4678 -30.4677 -30.4676 -30.4676 -30.4674 -30.4673 -30.4670 -30.4670
   -30.4668 -30.4667 -30.4666 -30.4666 -30.4666 -30.4666 -30.4665 -30.4665
    13.8800  13.8804  13.8805  13.8807  13.8808  13.8811  13.8812  13.8815
    14.7284  14.7285  14.7286  14.7287  14.7288  14.7288  14.7289  14.7290
    14.7298  14.7298  14.7298  14.7299  14.7299  14.7299  14.7300  14.7301
    14.7303  14.7303  14.7304  14.7305  14.7305  14.7305  14.7306  14.7306
    15.4826  15.4827  15.4829  15.4830  15.4830  15.4831  15.4831  15.4833
    15.4833  15.4834  15.4835  15.4836  15.4837  15.4838  15.4838  15.4838
    15.4847  15.4850  15.4850  15.4852  15.4853  15.4854  15.4855  15.4857
    16.4115  16.4117  16.4117  16.4117  16.4117  16.4118  16.4118  16.4118
    16.7090  16.7091  16.7091  16.7092  16.7093  16.7093  16.7093  16.7095
    16.7289  16.7289  16.7290  16.7290  16.7291  16.7292  16.7292  16.7293
    16.8963  16.8965  16.8965  16.8966  16.8966  16.8967  16.8967  16.8968
    16.9074  16.9075  16.9076  16.9076  16.9077  16.9077  16.9078  16.9078
    16.9079  16.9079  16.9080  16.9080  16.9080  16.9081  16.9081  16.9083
    17.6166  17.6167  17.6167  17.6168  17.6168  17.6168  17.6169  17.6170
    17.6170  17.6170  17.6171  17.6171  17.6172  17.6172  17.6173  17.6174
    17.6263  17.6264  17.6265  17.6266  17.6268  17.6269  17.6269  17.6271
    18.1204  18.1205  18.1206  18.1207  18.1208  18.1209  18.1210  18.1211
    18.1269  18.1270  18.1271  18.1272  18.1274  18.1276  18.1276  18.1277
    19.2092  19.2093  19.2094  19.2094  19.2095  19.2095  19.2096  19.2097
    19.2129  19.2129  19.2130  19.2130  19.2130  19.2130  19.2131  19.2131
    19.2131  19.2132  19.2132  19.2133  19.2133  19.2133  19.2133  19.2134
    22.7682  22.7682  22.7685  22.7686  22.7688  22.7689  22.7691  22.7692
    22.7887  22.7888  22.7889  22.7891  22.7891  22.7891  22.7892  22.7892
    22.7894  22.7894  22.7895  22.7895  22.7896  22.7897  22.7898  22.7898
    28.2105  28.2107  28.2108  28.2108  28.2109  28.2110  28.2110  28.2111
    28.2112  28.2113  28.2113  28.2114  28.2115  28.2116  28.2116  28.2117
    28.2339  28.2341  28.2342  28.2343  28.2343  28.2344  28.2345  28.2346
    33.5310  33.5324

     the Fermi energy is    19.2334 ev

!    total energy              =  -16384.95890140 Ry
     Harris-Foulkes estimate   =  -16384.95889038 Ry
     estimated scf accuracy    <       0.00000057 Ry

     total all-electron energy =   -322945.812609 Ry

     The total energy is the sum of the following terms:

     one-electron contribution =   -2492.81368149 Ry
     hartree contribution      =    1663.08467146 Ry
     xc contribution           =    -986.47081887 Ry
     ewald contribution        =   -6401.36857235 Ry
     one-center paw contrib.   =   -8167.42420457 Ry
     smearing contrib. (-TS)   =       0.03370441 Ry

     convergence has been achieved in  11 iterations

     Forces acting on atoms (cartesian axes, Ry/au):

     atom    1 type  1   force =     0.00000000   -0.00000000    0.00000000
     atom    2 type  1   force =    -0.00000372    0.00025342    0.00000000
     atom    3 type  1   force =    -0.00003054    0.00000000   -0.00003054
     atom    4 type  1   force =     0.00000000    0.00025342   -0.00000372
     atom    5 type  1   force =     0.00000000    0.00000000    0.00000000
     atom    6 type  1   force =     0.00004314    0.00042530    0.00000000
     atom    7 type  1   force =    -0.00003054    0.00000000    0.00003054
     atom    8 type  1   force =     0.00000000    0.00025342    0.00000372
     atom    9 type  1   force =     0.00000000   -0.00000000    0.00000000
     atom   10 type  1   force =    -0.00000372   -0.00025342   -0.00000000
     atom   11 type  1   force =     0.00005920    0.00000000    0.00005920
     atom   12 type  1   force =     0.00000000   -0.00025342   -0.00000372
     atom   13 type  1   force =     0.00000000    0.00000000    0.00000000
     atom   14 type  1   force =     0.00004314   -0.00042530    0.00000000
     atom   15 type  1   force =     0.00005920    0.00000000   -0.00005920
     atom   16 type  1   force =     0.00000000   -0.00025342    0.00000372
     atom   17 type  1   force =     0.00000000    0.00000000    0.00000000
     atom   18 type  1   force =     0.00000372    0.00025342   -0.00000000
     atom   19 type  1   force =     0.00003054    0.00000000   -0.00003054
     atom   20 type  1   force =     0.00000000    0.00042530    0.00004314
     atom   21 type  1   force =     0.00000000   -0.00000000    0.00000000
     atom   22 type  1   force =    -0.00004314    0.00042530    0.00000000
     atom   23 type  1   force =     0.00003054   -0.00000000    0.00003054
     atom   24 type  1   force =     0.00000000    0.00042530   -0.00004314
     atom   25 type  1   force =     0.00000000    0.00000000    0.00000000
     atom   26 type  1   force =     0.00000372   -0.00025342   -0.00000000
     atom   27 type  1   force =    -0.00005920    0.00000000    0.00005920
     atom   28 type  1   force =     0.00000000   -0.00042530    0.00004314
     atom   29 type  1   force =     0.00000000   -0.00000000    0.00000000
     atom   30 type  1   force =    -0.00004314   -0.00042530    0.00000000
     atom   31 type  1   force =    -0.00005920   -0.00000000   -0.00005920
     atom   32 type  1   force =     0.00000000   -0.00042530   -0.00004314

     Total force =     0.001418     Total SCF correction =     0.007184
     SCF correction compared to forces is large: reduce conv_thr to get better values

     Computing stress (Cartesian axis) and pressure

          total   stress  (Ry/bohr**3)                   (kbar)     P=   -2.65
  -0.00001394   0.00000000   0.00000000         -2.05      0.00      0.00
   0.00000000  -0.00002623   0.00000000          0.00     -3.86      0.00
   0.00000000   0.00000000  -0.00001394          0.00      0.00     -2.05

     Writing output data file YCQOMAgLOlXHTNVp.save/

     General routines

     Parallel routines

   This run was terminated on:  15:59:42  11Nov2020

   JOB DONE.