     Program PWSCF v.6.3 starts on 11Nov2020 at 17:20: 0

     R & G space division:  proc/nbgrp/npool/nimage =      20
     Reading input from wd/ec/ec_2_007.in
Warning: card &IONS ignored
Warning: card ION_DYNAMICS = 'BFGS', ignored
Warning: card / ignored
Warning: card &CELL ignored
Warning: card CELL_DYNAMICS = 'BFGS', ignored
Warning: card CELL_FACTOR = 2.0, ignored
Warning: card PRESS = 0.0, ignored
Warning: card / ignored

     Current dimensions of program PWSCF are:
     Max number of different atomic species (ntypx) = 10
     Max number of k-points (npk) =  40000
     Max angular momentum in pseudopotentials (lmaxx) =  3
               file Pd.pbe-spn-kjpaw_psl.1.0.0.UPF: wavefunction(s)  4S 5S 4D renormalized

     Subspace diagonalization in iterative solution of the eigenvalue problem:
     a serial algorithm will be used

     bravais-lattice index     =            0
     lattice parameter (alat)  =      14.8394  a.u.
     unit-cell volume          =    3284.1034 (a.u.)^3
     number of atoms/cell      =           32
     number of atomic types    =            1
     number of electrons       =       576.00
     number of Kohn-Sham states=          346
     kinetic-energy cutoff     =      71.0000  Ry
     charge density cutoff     =     430.0000  Ry
     convergence threshold     =      1.0E-06
     mixing beta               =       0.1000
     number of iterations used =           10  plain     mixing
     Exchange-correlation      = SLA PW PBX PBC ( 1  4  3  4 0 0)

     celldm(1)=  14.839420  celldm(2)=   0.000000  celldm(3)=   0.000000
     celldm(4)=   0.000000  celldm(5)=   0.000000  celldm(6)=   0.000000

     crystal axes: (cart. coord. in units of alat)
               a(1) = (   1.000000   0.000000   0.000000 )
               a(2) = (   0.000000   1.005000   0.000000 )
               a(3) = (   0.000000   0.000000   1.000000 )

     reciprocal axes: (cart. coord. in units 2 pi/alat)
               b(1) = (  1.000000  0.000000  0.000000 )
               b(2) = (  0.000000  0.995025  0.000000 )
               b(3) = (  0.000000  0.000000  1.000000 )

     PseudoPot. # 1 for Pd read from file:
     /rds/homes/b/bxp912/pp/Pd.pbe-spn-kjpaw_psl.1.0.0.UPF
     MD5 check sum: 790f2ebce206edfd9790dcb9844eca51
     Pseudo is Projector augmented-wave + core cor, Zval = 18.0
     Generated using "atomic" code by A. Dal Corso v.6.3
     Shape of augmentation charge: PSQ
     Using radial grid of 1235 points,  6 beta functions with:
                l(1) =   0
                l(2) =   0
                l(3) =   1
                l(4) =   1
                l(5) =   2
                l(6) =   2
     Q(r) pseudized with 0 coefficients

     atomic species   valence    mass     pseudopotential
        Pd            18.00   106.42000     Pd( 1.00)

     16 Sym. Ops., with inversion, found

   Cartesian axes

     site n.     atom                  positions (alat units)
         1           Pd  tau(   1) = (   0.0000000   0.0000000   0.0000000  )
         2           Pd  tau(   2) = (   0.2500045   0.2512545   0.0000000  )
         3           Pd  tau(   3) = (   0.2500045   0.0000000   0.2500040  )
         4           Pd  tau(   4) = (   0.0000000   0.2512545   0.2500040  )
         5           Pd  tau(   5) = (   0.0000000   0.0000000   0.4999990  )
         6           Pd  tau(   6) = (   0.2500116   0.2512617   0.4999990  )
         7           Pd  tau(   7) = (   0.2500045   0.0000000   0.7499950  )
         8           Pd  tau(   8) = (   0.0000000   0.2512545   0.7499950  )
         9           Pd  tau(   9) = (   0.0000000   0.5024998   0.0000000  )
        10           Pd  tau(  10) = (   0.2500045   0.7537452   0.0000000  )
        11           Pd  tau(  11) = (   0.2500116   0.5024998   0.2500109  )
        12           Pd  tau(  12) = (   0.0000000   0.7537452   0.2500040  )
        13           Pd  tau(  13) = (   0.0000000   0.5024998   0.4999990  )
        14           Pd  tau(  14) = (   0.2500116   0.7537380   0.4999990  )
        15           Pd  tau(  15) = (   0.2500116   0.5024998   0.7499881  )
        16           Pd  tau(  16) = (   0.0000000   0.7537452   0.7499950  )
        17           Pd  tau(  17) = (   0.4999998   0.0000000   0.0000000  )
        18           Pd  tau(  18) = (   0.7499952   0.2512545   0.0000000  )
        19           Pd  tau(  19) = (   0.7499952   0.0000000   0.2500040  )
        20           Pd  tau(  20) = (   0.4999998   0.2512617   0.2500109  )
        21           Pd  tau(  21) = (   0.4999998   0.0000000   0.4999990  )
        22           Pd  tau(  22) = (   0.7499881   0.2512617   0.4999990  )
        23           Pd  tau(  23) = (   0.7499952   0.0000000   0.7499950  )
        24           Pd  tau(  24) = (   0.4999998   0.2512617   0.7499881  )
        25           Pd  tau(  25) = (   0.4999998   0.5024998   0.0000000  )
        26           Pd  tau(  26) = (   0.7499952   0.7537452   0.0000000  )
        27           Pd  tau(  27) = (   0.7499881   0.5024998   0.2500109  )
        28           Pd  tau(  28) = (   0.4999998   0.7537380   0.2500109  )
        29           Pd  tau(  29) = (   0.4999998   0.5024998   0.4999990  )
        30           Pd  tau(  30) = (   0.7499881   0.7537380   0.4999990  )
        31           Pd  tau(  31) = (   0.7499881   0.5024998   0.7499881  )
        32           Pd  tau(  32) = (   0.4999998   0.7537380   0.7499881  )

     number of k points=    75  Marzari-Vanderbilt smearing, width (Ry)=  0.0400
                       cart. coord. in units 2pi/alat
        k(    1) = (   0.0555556   0.0552792   0.0555556), wk =   0.0219479
        k(    2) = (   0.0555556   0.0552792   0.1666667), wk =   0.0438957
        k(    3) = (   0.0555556   0.0552792   0.2777778), wk =   0.0438957
        k(    4) = (   0.0555556   0.0552792   0.3888889), wk =   0.0438957
        k(    5) = (   0.0555556   0.0552792  -0.5000000), wk =   0.0219479
        k(    6) = (   0.0555556   0.1658375   0.0555556), wk =   0.0219479
        k(    7) = (   0.0555556   0.1658375   0.1666667), wk =   0.0438957
        k(    8) = (   0.0555556   0.1658375   0.2777778), wk =   0.0438957
        k(    9) = (   0.0555556   0.1658375   0.3888889), wk =   0.0438957
        k(   10) = (   0.0555556   0.1658375  -0.5000000), wk =   0.0219479
        k(   11) = (   0.0555556   0.2763958   0.0555556), wk =   0.0219479
        k(   12) = (   0.0555556   0.2763958   0.1666667), wk =   0.0438957
        k(   13) = (   0.0555556   0.2763958   0.2777778), wk =   0.0438957
        k(   14) = (   0.0555556   0.2763958   0.3888889), wk =   0.0438957
        k(   15) = (   0.0555556   0.2763958  -0.5000000), wk =   0.0219479
        k(   16) = (   0.0555556   0.3869541   0.0555556), wk =   0.0219479
        k(   17) = (   0.0555556   0.3869541   0.1666667), wk =   0.0438957
        k(   18) = (   0.0555556   0.3869541   0.2777778), wk =   0.0438957
        k(   19) = (   0.0555556   0.3869541   0.3888889), wk =   0.0438957
        k(   20) = (   0.0555556   0.3869541  -0.5000000), wk =   0.0219479
        k(   21) = (   0.0555556  -0.4975124   0.0555556), wk =   0.0109739
        k(   22) = (   0.0555556  -0.4975124   0.1666667), wk =   0.0219479
        k(   23) = (   0.0555556  -0.4975124   0.2777778), wk =   0.0219479
        k(   24) = (   0.0555556  -0.4975124   0.3888889), wk =   0.0219479
        k(   25) = (   0.0555556  -0.4975124  -0.5000000), wk =   0.0109739
        k(   26) = (   0.1666667   0.0552792   0.1666667), wk =   0.0219479
        k(   27) = (   0.1666667   0.0552792   0.2777778), wk =   0.0438957
        k(   28) = (   0.1666667   0.0552792   0.3888889), wk =   0.0438957
        k(   29) = (   0.1666667   0.0552792  -0.5000000), wk =   0.0219479
        k(   30) = (   0.1666667   0.1658375   0.1666667), wk =   0.0219479
        k(   31) = (   0.1666667   0.1658375   0.2777778), wk =   0.0438957
        k(   32) = (   0.1666667   0.1658375   0.3888889), wk =   0.0438957
        k(   33) = (   0.1666667   0.1658375  -0.5000000), wk =   0.0219479
        k(   34) = (   0.1666667   0.2763958   0.1666667), wk =   0.0219479
        k(   35) = (   0.1666667   0.2763958   0.2777778), wk =   0.0438957
        k(   36) = (   0.1666667   0.2763958   0.3888889), wk =   0.0438957
        k(   37) = (   0.1666667   0.2763958  -0.5000000), wk =   0.0219479
        k(   38) = (   0.1666667   0.3869541   0.1666667), wk =   0.0219479
        k(   39) = (   0.1666667   0.3869541   0.2777778), wk =   0.0438957
        k(   40) = (   0.1666667   0.3869541   0.3888889), wk =   0.0438957
        k(   41) = (   0.1666667   0.3869541  -0.5000000), wk =   0.0219479
        k(   42) = (   0.1666667  -0.4975124   0.1666667), wk =   0.0109739
        k(   43) = (   0.1666667  -0.4975124   0.2777778), wk =   0.0219479
        k(   44) = (   0.1666667  -0.4975124   0.3888889), wk =   0.0219479
        k(   45) = (   0.1666667  -0.4975124  -0.5000000), wk =   0.0109739
        k(   46) = (   0.2777778   0.0552792   0.2777778), wk =   0.0219479
        k(   47) = (   0.2777778   0.0552792   0.3888889), wk =   0.0438957
        k(   48) = (   0.2777778   0.0552792  -0.5000000), wk =   0.0219479
        k(   49) = (   0.2777778   0.1658375   0.2777778), wk =   0.0219479
        k(   50) = (   0.2777778   0.1658375   0.3888889), wk =   0.0438957
        k(   51) = (   0.2777778   0.1658375  -0.5000000), wk =   0.0219479
        k(   52) = (   0.2777778   0.2763958   0.2777778), wk =   0.0219479
        k(   53) = (   0.2777778   0.2763958   0.3888889), wk =   0.0438957
        k(   54) = (   0.2777778   0.2763958  -0.5000000), wk =   0.0219479
        k(   55) = (   0.2777778   0.3869541   0.2777778), wk =   0.0219479
        k(   56) = (   0.2777778   0.3869541   0.3888889), wk =   0.0438957
        k(   57) = (   0.2777778   0.3869541  -0.5000000), wk =   0.0219479
        k(   58) = (   0.2777778  -0.4975124   0.2777778), wk =   0.0109739
        k(   59) = (   0.2777778  -0.4975124   0.3888889), wk =   0.0219479
        k(   60) = (   0.2777778  -0.4975124  -0.5000000), wk =   0.0109739
        k(   61) = (   0.3888889   0.0552792   0.3888889), wk =   0.0219479
        k(   62) = (   0.3888889   0.0552792  -0.5000000), wk =   0.0219479
        k(   63) = (   0.3888889   0.1658375   0.3888889), wk =   0.0219479
        k(   64) = (   0.3888889   0.1658375  -0.5000000), wk =   0.0219479
        k(   65) = (   0.3888889   0.2763958   0.3888889), wk =   0.0219479
        k(   66) = (   0.3888889   0.2763958  -0.5000000), wk =   0.0219479
        k(   67) = (   0.3888889   0.3869541   0.3888889), wk =   0.0219479
        k(   68) = (   0.3888889   0.3869541  -0.5000000), wk =   0.0219479
        k(   69) = (   0.3888889  -0.4975124   0.3888889), wk =   0.0109739
        k(   70) = (   0.3888889  -0.4975124  -0.5000000), wk =   0.0109739
        k(   71) = (  -0.5000000   0.0552792  -0.5000000), wk =   0.0054870
        k(   72) = (  -0.5000000   0.1658375  -0.5000000), wk =   0.0054870
        k(   73) = (  -0.5000000   0.2763958  -0.5000000), wk =   0.0054870
        k(   74) = (  -0.5000000   0.3869541  -0.5000000), wk =   0.0054870
        k(   75) = (  -0.5000000  -0.4975124  -0.5000000), wk =   0.0027435

     Check: negative/imaginary core charge=   -0.000002    0.000000

     Initial potential from superposition of free atoms

     starting charge  575.98776, renormalised to  576.00000
     Starting wfcs are  320 randomized atomic wfcs +   26 random wfcs
     Checking if some PAW data can be deallocated...

     Self-consistent Calculation

     iteration #  1     ecut=    71.00 Ry     beta= 0.10
     Davidson diagonalization with overlap
     ethr =  1.00E-02,  avg # of iterations =  3.1

     Threshold (ethr) on eigenvalues was too large:
     Diagonalizing with lowered threshold

     Davidson diagonalization with overlap
     ethr =  8.59E-05,  avg # of iterations =  3.2

     total energy              =  -16385.02297885 Ry
     Harris-Foulkes estimate   =  -16385.09275667 Ry
     estimated scf accuracy    <       0.48871316 Ry

[...]

     total energy              =  -16384.95932257 Ry
     Harris-Foulkes estimate   =  -16384.95931975 Ry
     estimated scf accuracy    <       0.00000110 Ry

     iteration # 11     ecut=    71.00 Ry     beta= 0.10
     Davidson diagonalization with overlap
     ethr =  1.91E-10,  avg # of iterations =  2.0

     End of self-consistent calculation

          k = 0.0556 0.0553 0.0556 ( 33154 PWs)   bands (ev):

   -64.9847 -64.9566 -64.9561 -64.9561 -64.9512 -64.9506 -64.9506 -64.9408
   -64.9407 -64.9407 -64.9385 -64.9381 -64.9380 -64.9379 -64.9378 -64.9377
   -64.9377 -64.9375 -64.9374 -64.9369 -64.9353 -64.9352 -64.9351 -64.9235
   -64.9226 -64.9225 -64.9224 -64.9223 -64.9220 -64.9219 -64.9218 -64.9215
   -30.8660 -30.8660 -30.8659 -30.8641 -30.8463 -30.8463 -30.8445 -30.7715
   -30.7682 -30.7681 -30.7674 -30.7673 -30.7640 -30.7639 -30.7637 -30.7637
   -30.7597 -30.7561 -30.7561 -30.7540 -30.7539 -30.7516 -30.7515 -30.7509
   -30.7508 -30.7359 -30.7359 -30.7330 -30.7330 -30.7325 -30.7325 -30.6939
   -30.6939 -30.6925 -30.6700 -30.6700 -30.6684 -30.6639 -30.6639 -30.6629
   -30.6550 -30.6550 -30.6545 -30.6545 -30.6534 -30.6533 -30.6412 -30.6410
   -30.6400 -30.6400 -30.6395 -30.6395 -30.6390 -30.6390 -30.6386 -30.6371
   -30.6371 -30.6360 -30.6358 -30.6357 -30.6344 -30.5761 -30.5760 -30.5733
   -30.5733 -30.5732 -30.5729 -30.5636 -30.5636 -30.5613 -30.5613 -30.5611
   -30.5611 -30.5594 -30.5593 -30.5571 -30.5556 -30.5550 -30.5548 -30.5542
   -30.5542 -30.5541 -30.5538 -30.5533 -30.5525 -30.5525 -30.5523 -30.5522
   -30.5517 -30.5507 -30.5473 -30.5472 -30.5453 -30.5017 -30.4994 -30.4994
    12.2021  13.9618  13.9620  13.9620  14.0273  14.0410  14.0410  14.0410
    14.2142  14.2312  14.2313  14.2348  14.2351  14.2351  14.4102  14.4267
    14.4268  14.9571  14.9572  14.9740  14.9741  14.9743  14.9744  15.1094
    15.1263  15.1264  15.2661  15.2671  15.2672  15.2922  15.3127  15.3128
    15.3475  15.3476  15.3487  15.3501  15.3502  15.3506  15.3507  15.3534
    15.3535  15.6845  15.6846  15.6948  15.6948  15.6983  15.6984  15.7880
    15.8045  15.8045  15.8089  15.8089  15.8258  15.8259  15.8281  15.8281
    15.8648  15.8838  15.8839  16.0364  16.0364  16.0482  16.0482  16.0529
    16.0530  16.1478  16.1478  16.1530  16.1531  16.1535  16.1536  16.1584
    16.1607  16.1607  16.2617  16.2618  16.2643  16.3049  16.3227  16.3227
    16.3254  16.3565  16.3603  16.3604  16.3679  16.3784  16.3977  16.4087
    17.1684  17.1936  17.1936  17.2424  17.2424  17.2530  17.3143  17.3144
    17.3158  17.3159  17.3214  17.3215  17.3242  17.3242  17.3294  17.3533
    17.3808  17.3809  17.4676  17.4677  17.4860  17.5904  17.5905  17.5956
    17.7102  17.7103  17.7271  17.7681  17.7682  17.7829  17.8432  17.8432
    17.8476  17.8476  17.8481  17.8482  17.8646  17.8646  17.8667  17.8882
    17.9150  17.9150  17.9158  17.9159  17.9285  17.9286  17.9351  18.0237
    18.0238  18.0368  18.4051  18.4051  18.4259  18.5070  18.5071  18.5248
    18.8894  18.8894  18.9033  19.0153  19.0153  19.0178  19.0333  19.0524
    19.0531  19.0681  19.0681  19.2883  19.2887  19.2887  19.3359  19.3359
    19.3371  19.3371  19.3462  19.3530  19.3530  19.3617  19.3618  20.0255
    20.3289  20.3289  20.3291  20.8285  20.8285  20.8566  21.3340  21.3341
    21.3357  21.3358  21.3686  21.3686  21.8607  21.8607  21.8994  22.4041
    22.4978  22.4978  26.1851  26.1851  26.1859  26.3422  27.3024  27.3025
    27.3455  27.3455  27.3888  27.3889  27.9933  27.9934  28.0339  28.0339
    28.0802  28.0804  29.4089  29.4089  29.4269  29.4269  29.4707  29.4707
    29.5061  29.6374  29.6374  30.5094  30.5808  30.5809  30.5962  30.5962
    30.6266  30.6268

[...]

          k = 0.3889-0.4975-0.5000 ( 33184 PWs)   bands (ev):

[...]

          k =-0.5000 0.0553-0.5000 ( 33144 PWs)   bands (ev):

[...]

          k =-0.5000-0.4975-0.5000 ( 33152 PWs)   bands (ev):

   -64.9621 -64.9619 -64.9618 -64.9616 -64.9614 -64.9612 -64.9610 -64.9608
   -64.9312 -64.9311 -64.9309 -64.9307 -64.9305 -64.9304 -64.9304 -64.9303
   -64.9302 -64.9302 -64.9301 -64.9300 -64.9300 -64.9299 -64.9298 -64.9297
   -64.9297 -64.9295 -64.9295 -64.9294 -64.9293 -64.9292 -64.9291 -64.9289
   -30.8062 -30.8061 -30.8061 -30.8061 -30.8060 -30.8060 -30.8059 -30.8058
   -30.8058 -30.8057 -30.8057 -30.8056 -30.8056 -30.8055 -30.8055 -30.8055
   -30.8042 -30.8041 -30.8039 -30.8039 -30.8036 -30.8036 -30.8034 -30.8034
   -30.6850 -30.6849 -30.6848 -30.6848 -30.6847 -30.6846 -30.6846 -30.6845
   -30.6487 -30.6487 -30.6486 -30.6486 -30.6485 -30.6484 -30.6484 -30.6483
   -30.6482 -30.6482 -30.6482 -30.6481 -30.6481 -30.6481 -30.6481 -30.6480
   -30.6480 -30.6480 -30.6479 -30.6479 -30.6479 -30.6479 -30.6478 -30.6477
   -30.5961 -30.5961 -30.5960 -30.5960 -30.5959 -30.5959 -30.5958 -30.5958
   -30.5955 -30.5955 -30.5955 -30.5955 -30.5953 -30.5953 -30.5953 -30.5953
   -30.5932 -30.5932 -30.5932 -30.5932 -30.5930 -30.5930 -30.5930 -30.5930
   -30.5267 -30.5266 -30.5265 -30.5265 -30.5262 -30.5262 -30.5260 -30.5259
   -30.5251 -30.5251 -30.5250 -30.5250 -30.5249 -30.5249 -30.5249 -30.5249
    13.8317  13.8322  13.8323  13.8324  13.8326  13.8329  13.8329  13.8333
    14.6800  14.6800  14.6801  14.6802  14.6803  14.6804  14.6805  14.6805
    14.6828  14.6829  14.6829  14.6829  14.6830  14.6830  14.6831  14.6831
    14.6834  14.6834  14.6835  14.6835  14.6836  14.6836  14.6836  14.6836
    15.4323  15.4323  15.4325  15.4326  15.4326  15.4327  15.4327  15.4329
    15.4329  15.4331  15.4331  15.4333  15.4333  15.4334  15.4334  15.4335
    15.4362  15.4365  15.4365  15.4367  15.4368  15.4368  15.4370  15.4372
    16.3578  16.3580  16.3580  16.3580  16.3581  16.3581  16.3581  16.3582
    16.6443  16.6444  16.6444  16.6445  16.6445  16.6446  16.6446  16.6447
    16.6839  16.6839  16.6840  16.6840  16.6841  16.6842  16.6842  16.6843
    16.8335  16.8336  16.8336  16.8337  16.8337  16.8338  16.8338  16.8339
    16.8556  16.8557  16.8558  16.8558  16.8559  16.8560  16.8560  16.8560
    16.8561  16.8561  16.8562  16.8562  16.8563  16.8563  16.8564  16.8565
    17.5551  17.5551  17.5552  17.5552  17.5553  17.5553  17.5553  17.5554
    17.5555  17.5555  17.5556  17.5556  17.5557  17.5557  17.5557  17.5558
    17.5744  17.5745  17.5746  17.5747  17.5749  17.5749  17.5750  17.5751
    18.0565  18.0567  18.0567  18.0569  18.0569  18.0571  18.0571  18.0573
    18.0696  18.0697  18.0698  18.0699  18.0701  18.0703  18.0703  18.0704
    19.1415  19.1415  19.1416  19.1417  19.1417  19.1418  19.1419  19.1420
    19.1487  19.1487  19.1488  19.1488  19.1488  19.1488  19.1489  19.1489
    19.1489  19.1490  19.1490  19.1491  19.1491  19.1491  19.1492  19.1492
    22.6832  22.6833  22.6835  22.6836  22.6838  22.6839  22.6842  22.6843
    22.7243  22.7244  22.7245  22.7247  22.7248  22.7248  22.7248  22.7249
    22.7250  22.7251  22.7251  22.7252  22.7252  22.7254  22.7254  22.7255
    28.1220  28.1222  28.1223  28.1223  28.1224  28.1225  28.1225  28.1226
    28.1227  28.1228  28.1228  28.1229  28.1230  28.1231  28.1231  28.1232
    28.1684  28.1685  28.1686  28.1687  28.1688  28.1689  28.1690  28.1691
    33.3970  33.3975

     the Fermi energy is    19.1687 ev

!    total energy              =  -16384.95933362 Ry
     Harris-Foulkes estimate   =  -16384.95932267 Ry
     estimated scf accuracy    <       0.00000058 Ry

     total all-electron energy =   -322945.813041 Ry

     The total energy is the sum of the following terms:

     one-electron contribution =   -2501.11032020 Ry
     hartree contribution      =    1666.00553794 Ry
     xc contribution           =    -986.41340527 Ry
     ewald contribution        =   -6396.05433136 Ry
     one-center paw contrib.   =   -8167.42141266 Ry
     smearing contrib. (-TS)   =       0.03459792 Ry

     convergence has been achieved in  11 iterations

     Forces acting on atoms (cartesian axes, Ry/au):

     atom    1 type  1   force =     0.00000000    0.00000000   -0.00000000
     atom    2 type  1   force =    -0.00000454    0.00025908    0.00000000
     atom    3 type  1   force =    -0.00003163    0.00000000   -0.00003163
     atom    4 type  1   force =     0.00000000    0.00025908   -0.00000454
     atom    5 type  1   force =     0.00000000    0.00000000    0.00000000
     atom    6 type  1   force =     0.00004512    0.00043592   -0.00000000
     atom    7 type  1   force =    -0.00003163   -0.00000000    0.00003163
     atom    8 type  1   force =     0.00000000    0.00025908    0.00000454
     atom    9 type  1   force =     0.00000000    0.00000000    0.00000000
     atom   10 type  1   force =    -0.00000454   -0.00025908   -0.00000000
     atom   11 type  1   force =     0.00006193    0.00000000    0.00006193
     atom   12 type  1   force =     0.00000000   -0.00025908   -0.00000454
     atom   13 type  1   force =     0.00000000    0.00000000    0.00000000
     atom   14 type  1   force =     0.00004512   -0.00043592    0.00000000
     atom   15 type  1   force =     0.00006193    0.00000000   -0.00006193
     atom   16 type  1   force =     0.00000000   -0.00025908    0.00000454
     atom   17 type  1   force =     0.00000000    0.00000000   -0.00000000
     atom   18 type  1   force =     0.00000454    0.00025908   -0.00000000
     atom   19 type  1   force =     0.00003163   -0.00000000   -0.00003163
     atom   20 type  1   force =     0.00000000    0.00043592    0.00004512
     atom   21 type  1   force =     0.00000000    0.00000000    0.00000000
     atom   22 type  1   force =    -0.00004512    0.00043592    0.00000000
     atom   23 type  1   force =     0.00003163    0.00000000    0.00003163
     atom   24 type  1   force =    -0.00000000    0.00043592   -0.00004512
     atom   25 type  1   force =     0.00000000    0.00000000    0.00000000
     atom   26 type  1   force =     0.00000454   -0.00025908    0.00000000
     atom   27 type  1   force =    -0.00006193    0.00000000    0.00006193
     atom   28 type  1   force =    -0.00000000   -0.00043592    0.00004512
     atom   29 type  1   force =     0.00000000    0.00000000    0.00000000
     atom   30 type  1   force =    -0.00004512   -0.00043592   -0.00000000
     atom   31 type  1   force =    -0.00006193   -0.00000000   -0.00006193
     atom   32 type  1   force =     0.00000000   -0.00043592   -0.00004512

     Total force =     0.001453     Total SCF correction =     0.007284
     SCF correction compared to forces is large: reduce conv_thr to get better values

     Computing stress (Cartesian axis) and pressure

          total   stress  (Ry/bohr**3)                   (kbar)     P=   -7.05
  -0.00003958   0.00000000   0.00000000         -5.82      0.00      0.00
   0.00000000  -0.00006453   0.00000000          0.00     -9.49      0.00
   0.00000000   0.00000000  -0.00003958          0.00      0.00     -5.82

     Writing output data file pqvVypNpabeYxOKW.save/

     General routines

     Parallel routines

   This run was terminated on:  18: 1: 5  11Nov2020

   JOB DONE.