     Program PWSCF v.6.3 starts on 11Nov2020 at 15:59:45

     R & G space division:  proc/nbgrp/npool/nimage =      20
     Reading input from wd/ec/ec_2_005.in
Warning: card &IONS ignored
Warning: card ION_DYNAMICS = 'BFGS', ignored
Warning: card / ignored
Warning: card &CELL ignored
Warning: card CELL_DYNAMICS = 'BFGS', ignored
Warning: card CELL_FACTOR = 2.0, ignored
Warning: card PRESS = 0.0, ignored
Warning: card / ignored

     Current dimensions of program PWSCF are:
     Max number of different atomic species (ntypx) = 10
     Max number of k-points (npk) =  40000
     Max angular momentum in pseudopotentials (lmaxx) =  3
               file Pd.pbe-spn-kjpaw_psl.1.0.0.UPF: wavefunction(s)  4S 5S 4D renormalized

     Subspace diagonalization in iterative solution of the eigenvalue problem:
     a serial algorithm will be used

     bravais-lattice index     =            0
     lattice parameter (alat)  =      14.8394  a.u.
     unit-cell volume          =    3278.6572 (a.u.)^3
     number of atoms/cell      =           32
     number of atomic types    =            1
     number of electrons       =       576.00
     number of Kohn-Sham states=          346
     kinetic-energy cutoff     =      71.0000  Ry
     charge density cutoff     =     430.0000  Ry
     convergence threshold     =      1.0E-06
     mixing beta               =       0.1000
     number of iterations used =           10  plain     mixing
     Exchange-correlation      = SLA PW PBX PBC ( 1  4  3  4 0 0)

     celldm(1)=  14.839420  celldm(2)=   0.000000  celldm(3)=   0.000000
     celldm(4)=   0.000000  celldm(5)=   0.000000  celldm(6)=   0.000000

     crystal axes: (cart. coord. in units of alat)
               a(1) = (   1.000000   0.000000   0.000000 )
               a(2) = (   0.000000   1.003333   0.000000 )
               a(3) = (   0.000000   0.000000   1.000000 )

     reciprocal axes: (cart. coord. in units 2 pi/alat)
               b(1) = (  1.000000  0.000000  0.000000 )
               b(2) = (  0.000000  0.996678  0.000000 )
               b(3) = (  0.000000  0.000000  1.000000 )

     PseudoPot. # 1 for Pd read from file:
     /rds/homes/b/bxp912/pp/Pd.pbe-spn-kjpaw_psl.1.0.0.UPF
     MD5 check sum: 790f2ebce206edfd9790dcb9844eca51
     Pseudo is Projector augmented-wave + core cor, Zval = 18.0
     Generated using "atomic" code by A. Dal Corso v.6.3
     Shape of augmentation charge: PSQ
     Using radial grid of 1235 points,  6 beta functions with:
                l(1) =   0
                l(2) =   0
                l(3) =   1
                l(4) =   1
                l(5) =   2
                l(6) =   2
     Q(r) pseudized with 0 coefficients

     atomic species   valence    mass     pseudopotential
        Pd            18.00   106.42000     Pd( 1.00)

     16 Sym. Ops., with inversion, found

   Cartesian axes

     site n.     atom                  positions (alat units)
         1           Pd  tau(   1) = (   0.0000000   0.0000000   0.0000000  )
         2           Pd  tau(   2) = (   0.2500045   0.2508378   0.0000000  )
         3           Pd  tau(   3) = (   0.2500045   0.0000000   0.2500040  )
         4           Pd  tau(   4) = (   0.0000000   0.2508378   0.2500040  )
         5           Pd  tau(   5) = (   0.0000000   0.0000000   0.4999990  )
         6           Pd  tau(   6) = (   0.2500116   0.2508450   0.4999990  )
         7           Pd  tau(   7) = (   0.2500045   0.0000000   0.7499950  )
         8           Pd  tau(   8) = (   0.0000000   0.2508378   0.7499950  )
         9           Pd  tau(   9) = (   0.0000000   0.5016665   0.0000000  )
        10           Pd  tau(  10) = (   0.2500045   0.7524952   0.0000000  )
        11           Pd  tau(  11) = (   0.2500116   0.5016665   0.2500109  )
        12           Pd  tau(  12) = (   0.0000000   0.7524952   0.2500040  )
        13           Pd  tau(  13) = (   0.0000000   0.5016665   0.4999990  )
        14           Pd  tau(  14) = (   0.2500116   0.7524881   0.4999990  )
        15           Pd  tau(  15) = (   0.2500116   0.5016665   0.7499881  )
        16           Pd  tau(  16) = (   0.0000000   0.7524952   0.7499950  )
        17           Pd  tau(  17) = (   0.4999998   0.0000000   0.0000000  )
        18           Pd  tau(  18) = (   0.7499952   0.2508378   0.0000000  )
        19           Pd  tau(  19) = (   0.7499952   0.0000000   0.2500040  )
        20           Pd  tau(  20) = (   0.4999998   0.2508450   0.2500109  )
        21           Pd  tau(  21) = (   0.4999998   0.0000000   0.4999990  )
        22           Pd  tau(  22) = (   0.7499881   0.2508450   0.4999990  )
        23           Pd  tau(  23) = (   0.7499952   0.0000000   0.7499950  )
        24           Pd  tau(  24) = (   0.4999998   0.2508450   0.7499881  )
        25           Pd  tau(  25) = (   0.4999998   0.5016665   0.0000000  )
        26           Pd  tau(  26) = (   0.7499952   0.7524952   0.0000000  )
        27           Pd  tau(  27) = (   0.7499881   0.5016665   0.2500109  )
        28           Pd  tau(  28) = (   0.4999998   0.7524881   0.2500109  )
        29           Pd  tau(  29) = (   0.4999998   0.5016665   0.4999990  )
        30           Pd  tau(  30) = (   0.7499881   0.7524881   0.4999990  )
        31           Pd  tau(  31) = (   0.7499881   0.5016665   0.7499881  )
        32           Pd  tau(  32) = (   0.4999998   0.7524881   0.7499881  )

     number of k points=    75  Marzari-Vanderbilt smearing, width (Ry)=  0.0400
                       cart. coord. in units 2pi/alat
        k(    1) = (   0.0555556   0.0553710   0.0555556), wk =   0.0219479
        k(    2) = (   0.0555556   0.0553710   0.1666667), wk =   0.0438957
        k(    3) = (   0.0555556   0.0553710   0.2777778), wk =   0.0438957
        k(    4) = (   0.0555556   0.0553710   0.3888889), wk =   0.0438957
        k(    5) = (   0.0555556   0.0553710  -0.5000000), wk =   0.0219479
        k(    6) = (   0.0555556   0.1661130   0.0555556), wk =   0.0219479
        k(    7) = (   0.0555556   0.1661130   0.1666667), wk =   0.0438957
        k(    8) = (   0.0555556   0.1661130   0.2777778), wk =   0.0438957
        k(    9) = (   0.0555556   0.1661130   0.3888889), wk =   0.0438957
        k(   10) = (   0.0555556   0.1661130  -0.5000000), wk =   0.0219479
        k(   11) = (   0.0555556   0.2768549   0.0555556), wk =   0.0219479
        k(   12) = (   0.0555556   0.2768549   0.1666667), wk =   0.0438957
        k(   13) = (   0.0555556   0.2768549   0.2777778), wk =   0.0438957
        k(   14) = (   0.0555556   0.2768549   0.3888889), wk =   0.0438957
        k(   15) = (   0.0555556   0.2768549  -0.5000000), wk =   0.0219479
        k(   16) = (   0.0555556   0.3875969   0.0555556), wk =   0.0219479
        k(   17) = (   0.0555556   0.3875969   0.1666667), wk =   0.0438957
        k(   18) = (   0.0555556   0.3875969   0.2777778), wk =   0.0438957
        k(   19) = (   0.0555556   0.3875969   0.3888889), wk =   0.0438957
        k(   20) = (   0.0555556   0.3875969  -0.5000000), wk =   0.0219479
        k(   21) = (   0.0555556  -0.4983389   0.0555556), wk =   0.0109739
        k(   22) = (   0.0555556  -0.4983389   0.1666667), wk =   0.0219479
        k(   23) = (   0.0555556  -0.4983389   0.2777778), wk =   0.0219479
        k(   24) = (   0.0555556  -0.4983389   0.3888889), wk =   0.0219479
        k(   25) = (   0.0555556  -0.4983389  -0.5000000), wk =   0.0109739
        k(   26) = (   0.1666667   0.0553710   0.1666667), wk =   0.0219479
        k(   27) = (   0.1666667   0.0553710   0.2777778), wk =   0.0438957
        k(   28) = (   0.1666667   0.0553710   0.3888889), wk =   0.0438957
        k(   29) = (   0.1666667   0.0553710  -0.5000000), wk =   0.0219479
        k(   30) = (   0.1666667   0.1661130   0.1666667), wk =   0.0219479
        k(   31) = (   0.1666667   0.1661130   0.2777778), wk =   0.0438957
        k(   32) = (   0.1666667   0.1661130   0.3888889), wk =   0.0438957
        k(   33) = (   0.1666667   0.1661130  -0.5000000), wk =   0.0219479
        k(   34) = (   0.1666667   0.2768549   0.1666667), wk =   0.0219479
        k(   35) = (   0.1666667   0.2768549   0.2777778), wk =   0.0438957
        k(   36) = (   0.1666667   0.2768549   0.3888889), wk =   0.0438957
        k(   37) = (   0.1666667   0.2768549  -0.5000000), wk =   0.0219479
        k(   38) = (   0.1666667   0.3875969   0.1666667), wk =   0.0219479
        k(   39) = (   0.1666667   0.3875969   0.2777778), wk =   0.0438957
        k(   40) = (   0.1666667   0.3875969   0.3888889), wk =   0.0438957
        k(   41) = (   0.1666667   0.3875969  -0.5000000), wk =   0.0219479
        k(   42) = (   0.1666667  -0.4983389   0.1666667), wk =   0.0109739
        k(   43) = (   0.1666667  -0.4983389   0.2777778), wk =   0.0219479
        k(   44) = (   0.1666667  -0.4983389   0.3888889), wk =   0.0219479
        k(   45) = (   0.1666667  -0.4983389  -0.5000000), wk =   0.0109739
        k(   46) = (   0.2777778   0.0553710   0.2777778), wk =   0.0219479
        k(   47) = (   0.2777778   0.0553710   0.3888889), wk =   0.0438957
        k(   48) = (   0.2777778   0.0553710  -0.5000000), wk =   0.0219479
        k(   49) = (   0.2777778   0.1661130   0.2777778), wk =   0.0219479
        k(   50) = (   0.2777778   0.1661130   0.3888889), wk =   0.0438957
        k(   51) = (   0.2777778   0.1661130  -0.5000000), wk =   0.0219479
        k(   52) = (   0.2777778   0.2768549   0.2777778), wk =   0.0219479
        k(   53) = (   0.2777778   0.2768549   0.3888889), wk =   0.0438957
        k(   54) = (   0.2777778   0.2768549  -0.5000000), wk =   0.0219479
        k(   55) = (   0.2777778   0.3875969   0.2777778), wk =   0.0219479
        k(   56) = (   0.2777778   0.3875969   0.3888889), wk =   0.0438957
        k(   57) = (   0.2777778   0.3875969  -0.5000000), wk =   0.0219479
        k(   58) = (   0.2777778  -0.4983389   0.2777778), wk =   0.0109739
        k(   59) = (   0.2777778  -0.4983389   0.3888889), wk =   0.0219479
        k(   60) = (   0.2777778  -0.4983389  -0.5000000), wk =   0.0109739
        k(   61) = (   0.3888889   0.0553710   0.3888889), wk =   0.0219479
        k(   62) = (   0.3888889   0.0553710  -0.5000000), wk =   0.0219479
        k(   63) = (   0.3888889   0.1661130   0.3888889), wk =   0.0219479
        k(   64) = (   0.3888889   0.1661130  -0.5000000), wk =   0.0219479
        k(   65) = (   0.3888889   0.2768549   0.3888889), wk =   0.0219479
        k(   66) = (   0.3888889   0.2768549  -0.5000000), wk =   0.0219479
        k(   67) = (   0.3888889   0.3875969   0.3888889), wk =   0.0219479
        k(   68) = (   0.3888889   0.3875969  -0.5000000), wk =   0.0219479
        k(   69) = (   0.3888889  -0.4983389   0.3888889), wk =   0.0109739
        k(   70) = (   0.3888889  -0.4983389  -0.5000000), wk =   0.0109739
        k(   71) = (  -0.5000000   0.0553710  -0.5000000), wk =   0.0054870
        k(   72) = (  -0.5000000   0.1661130  -0.5000000), wk =   0.0054870
        k(   73) = (  -0.5000000   0.2768549  -0.5000000), wk =   0.0054870
        k(   74) = (  -0.5000000   0.3875969  -0.5000000), wk =   0.0054870
        k(   75) = (  -0.5000000  -0.4983389  -0.5000000), wk =   0.0027435

     Check: negative/imaginary core charge=   -0.000002    0.000000

     Initial potential from superposition of free atoms

     starting charge  575.98776, renormalised to  576.00000
     Starting wfcs are  320 randomized atomic wfcs +   26 random wfcs
     Checking if some PAW data can be deallocated...

     Self-consistent Calculation

     iteration #  1     ecut=    71.00 Ry     beta= 0.10
     Davidson diagonalization with overlap
     ethr =  1.00E-02,  avg # of iterations =  3.1

     Threshold (ethr) on eigenvalues was too large:
     Diagonalizing with lowered threshold

     Davidson diagonalization with overlap
     ethr =  8.50E-05,  avg # of iterations =  3.0

     total energy              =  -16385.02214738 Ry
     Harris-Foulkes estimate   =  -16385.09109078 Ry
     estimated scf accuracy    <       0.48331826 Ry

[...]

     total energy              =  -16384.95906123 Ry
     Harris-Foulkes estimate   =  -16384.95905838 Ry
     estimated scf accuracy    <       0.00000113 Ry

     iteration # 11     ecut=    71.00 Ry     beta= 0.10
     Davidson diagonalization with overlap
     ethr =  1.96E-10,  avg # of iterations =  2.0

     End of self-consistent calculation

          k = 0.0556 0.0554 0.0556 ( 33087 PWs)   bands (ev):

   -64.9466 -64.9182 -64.9179 -64.9178 -64.9127 -64.9123 -64.9123 -64.9024
   -64.9023 -64.9022 -64.9000 -64.8997 -64.8995 -64.8994 -64.8993 -64.8993
   -64.8992 -64.8991 -64.8990 -64.8985 -64.8968 -64.8967 -64.8966 -64.8847
   -64.8840 -64.8839 -64.8838 -64.8837 -64.8835 -64.8834 -64.8833 -64.8830
   -30.8290 -30.8290 -30.8289 -30.8271 -30.8090 -30.8090 -30.8078 -30.7332
   -30.7310 -30.7309 -30.7290 -30.7290 -30.7267 -30.7267 -30.7265 -30.7265
   -30.7213 -30.7189 -30.7188 -30.7157 -30.7157 -30.7141 -30.7141 -30.7136
   -30.7136 -30.6974 -30.6974 -30.6955 -30.6955 -30.6952 -30.6951 -30.6557
   -30.6557 -30.6548 -30.6316 -30.6316 -30.6306 -30.6255 -30.6255 -30.6248
   -30.6165 -30.6165 -30.6161 -30.6161 -30.6153 -30.6153 -30.6018 -30.6016
   -30.6015 -30.6015 -30.6008 -30.6008 -30.6005 -30.6005 -30.6004 -30.5992
   -30.5992 -30.5983 -30.5979 -30.5978 -30.5967 -30.5366 -30.5366 -30.5348
   -30.5347 -30.5347 -30.5345 -30.5242 -30.5242 -30.5227 -30.5226 -30.5226
   -30.5225 -30.5202 -30.5201 -30.5187 -30.5163 -30.5157 -30.5155 -30.5151
   -30.5150 -30.5149 -30.5146 -30.5140 -30.5140 -30.5139 -30.5137 -30.5136
   -30.5132 -30.5123 -30.5080 -30.5079 -30.5068 -30.4625 -30.4602 -30.4602
    12.2328  13.9914  13.9915  13.9916  14.0580  14.0717  14.0717  14.0717
    14.2506  14.2619  14.2620  14.2652  14.2653  14.2653  14.4463  14.4573
    14.4574  14.9927  14.9928  15.0040  15.0041  15.0042  15.0043  15.1456
    15.1569  15.1569  15.3002  15.3009  15.3009  15.3296  15.3433  15.3434
    15.3820  15.3820  15.3834  15.3837  15.3838  15.3840  15.3841  15.3866
    15.3866  15.7212  15.7212  15.7281  15.7281  15.7304  15.7305  15.8260
    15.8370  15.8370  15.8472  15.8473  15.8585  15.8586  15.8600  15.8601
    15.9034  15.9162  15.9162  16.0744  16.0744  16.0823  16.0823  16.0855
    16.0855  16.1839  16.1839  16.1888  16.1889  16.1891  16.1892  16.1909
    16.1939  16.1940  16.2972  16.2973  16.2989  16.3474  16.3623  16.3623
    16.3681  16.3921  16.3921  16.3966  16.4009  16.4071  16.4299  16.4397
    17.2120  17.2288  17.2288  17.2814  17.2814  17.2886  17.3536  17.3537
    17.3546  17.3547  17.3603  17.3603  17.3604  17.3604  17.3658  17.3978
    17.4162  17.4162  17.5084  17.5085  17.5207  17.6297  17.6298  17.6331
    17.7515  17.7516  17.7627  17.8092  17.8093  17.8191  17.8837  17.8837
    17.8867  17.8867  17.8870  17.8871  17.9043  17.9044  17.9057  17.9361
    17.9565  17.9566  17.9571  17.9571  17.9656  17.9656  17.9675  18.0654
    18.0655  18.0741  18.4489  18.4489  18.4627  18.5508  18.5508  18.5626
    18.9334  18.9334  18.9426  19.0587  19.0588  19.0604  19.0796  19.0925
    19.0996  19.1095  19.1096  19.3331  19.3343  19.3343  19.3830  19.3830
    19.3838  19.3838  19.3909  19.3946  19.3946  19.4002  19.4003  20.0651
    20.3694  20.3694  20.3696  20.8778  20.8778  20.8966  21.3849  21.3849
    21.3860  21.3861  21.4080  21.4080  21.9125  21.9125  21.9383  22.4680
    22.5307  22.5307  26.2411  26.2411  26.2416  26.3981  27.3688  27.3689
    27.3976  27.3976  27.4265  27.4266  28.0602  28.0603  28.0874  28.0874
    28.1183  28.1185  29.4758  29.4758  29.4878  29.4878  29.5164  29.5165
    29.5949  29.6827  29.6827  30.5827  30.6420  30.6420  30.6522  30.6522
    30.6733  30.6733

[...]

          k = 0.3889-0.4983-0.5000 ( 33120 PWs)   bands (ev):

[...]

          k =-0.5000 0.0554-0.5000 ( 33084 PWs)   bands (ev):

[...]

          k =-0.5000-0.4983-0.5000 ( 33072 PWs)   bands (ev):

   -64.9238 -64.9237 -64.9235 -64.9233 -64.9231 -64.9229 -64.9227 -64.9226
   -64.8926 -64.8925 -64.8923 -64.8922 -64.8920 -64.8919 -64.8919 -64.8918
   -64.8917 -64.8917 -64.8916 -64.8915 -64.8915 -64.8914 -64.8913 -64.8913
   -64.8912 -64.8910 -64.8910 -64.8909 -64.8908 -64.8907 -64.8907 -64.8904
   -30.7686 -30.7685 -30.7685 -30.7685 -30.7685 -30.7684 -30.7683 -30.7683
   -30.7682 -30.7681 -30.7681 -30.7680 -30.7680 -30.7680 -30.7679 -30.7679
   -30.7671 -30.7670 -30.7669 -30.7668 -30.7666 -30.7665 -30.7664 -30.7663
   -30.6468 -30.6468 -30.6467 -30.6467 -30.6466 -30.6465 -30.6465 -30.6464
   -30.6103 -30.6103 -30.6102 -30.6102 -30.6101 -30.6100 -30.6100 -30.6099
   -30.6099 -30.6099 -30.6099 -30.6098 -30.6098 -30.6098 -30.6098 -30.6097
   -30.6097 -30.6097 -30.6096 -30.6096 -30.6096 -30.6095 -30.6095 -30.6094
   -30.5572 -30.5572 -30.5571 -30.5571 -30.5570 -30.5569 -30.5569 -30.5569
   -30.5566 -30.5566 -30.5566 -30.5566 -30.5564 -30.5564 -30.5563 -30.5563
   -30.5551 -30.5551 -30.5551 -30.5551 -30.5550 -30.5550 -30.5549 -30.5549
   -30.4874 -30.4874 -30.4873 -30.4872 -30.4870 -30.4870 -30.4867 -30.4867
   -30.4862 -30.4862 -30.4861 -30.4861 -30.4861 -30.4860 -30.4860 -30.4860
    13.8639  13.8643  13.8644  13.8646  13.8647  13.8650  13.8651  13.8654
    14.7122  14.7123  14.7124  14.7125  14.7126  14.7127  14.7127  14.7128
    14.7141  14.7141  14.7142  14.7142  14.7142  14.7143  14.7143  14.7144
    14.7146  14.7146  14.7148  14.7148  14.7148  14.7149  14.7149  14.7149
    15.4658  15.4659  15.4661  15.4662  15.4662  15.4662  15.4663  15.4665
    15.4665  15.4666  15.4666  15.4668  15.4669  15.4669  15.4670  15.4670
    15.4685  15.4688  15.4689  15.4690  15.4691  15.4692  15.4693  15.4695
    16.3936  16.3938  16.3938  16.3938  16.3938  16.3939  16.3939  16.3939
    16.6874  16.6875  16.6875  16.6876  16.6876  16.6877  16.6877  16.6878
    16.7139  16.7139  16.7140  16.7140  16.7141  16.7141  16.7142  16.7143
    16.8754  16.8755  16.8755  16.8756  16.8756  16.8757  16.8757  16.8758
    16.8901  16.8902  16.8903  16.8903  16.8904  16.8904  16.8905  16.8905
    16.8906  16.8906  16.8907  16.8907  16.8908  16.8908  16.8909  16.8910
    17.5961  17.5961  17.5962  17.5962  17.5963  17.5963  17.5963  17.5964
    17.5964  17.5965  17.5966  17.5966  17.5967  17.5967  17.5967  17.5968
    17.6090  17.6091  17.6092  17.6093  17.6095  17.6095  17.6096  17.6097
    18.0991  18.0992  18.0993  18.0994  18.0995  18.0996  18.0996  18.0998
    18.1078  18.1079  18.1080  18.1080  18.1083  18.1085  18.1085  18.1086
    19.1866  19.1866  19.1867  19.1868  19.1869  19.1869  19.1870  19.1871
    19.1915  19.1915  19.1915  19.1916  19.1916  19.1916  19.1916  19.1917
    19.1917  19.1918  19.1918  19.1918  19.1918  19.1919  19.1919  19.1919
    22.7398  22.7399  22.7401  22.7402  22.7404  22.7405  22.7407  22.7408
    22.7672  22.7673  22.7674  22.7676  22.7676  22.7676  22.7677  22.7677
    22.7679  22.7679  22.7680  22.7680  22.7681  22.7682  22.7683  22.7683
    28.1810  28.1812  28.1812  28.1813  28.1813  28.1814  28.1815  28.1815
    28.1816  28.1817  28.1818  28.1819  28.1819  28.1820  28.1821  28.1821
    28.2120  28.2122  28.2123  28.2124  28.2124  28.2125  28.2127  28.2127
    33.4859  33.4865

     the Fermi energy is    19.2118 ev

!    total energy              =  -16384.95907232 Ry
     Harris-Foulkes estimate   =  -16384.95906133 Ry
     estimated scf accuracy    <       0.00000057 Ry

     total all-electron energy =   -322945.812779 Ry

     The total energy is the sum of the following terms:

     one-electron contribution =   -2495.58162434 Ry
     hartree contribution      =    1664.05879737 Ry
     xc contribution           =    -986.45161759 Ry
     ewald contribution        =   -6399.59534177 Ry
     one-center paw contrib.   =   -8167.42328329 Ry
     smearing contrib. (-TS)   =       0.03399729 Ry

     convergence has been achieved in  11 iterations

     Forces acting on atoms (cartesian axes, Ry/au):

     atom    1 type  1   force =     0.00000000    0.00000000    0.00000000
     atom    2 type  1   force =    -0.00000408    0.00025549   -0.00000000
     atom    3 type  1   force =    -0.00003056   -0.00000000   -0.00003056
     atom    4 type  1   force =     0.00000000    0.00025549   -0.00000408
     atom    5 type  1   force =     0.00000000    0.00000000   -0.00000000
     atom    6 type  1   force =     0.00004368    0.00042773   -0.00000000
     atom    7 type  1   force =    -0.00003056   -0.00000000    0.00003056
     atom    8 type  1   force =    -0.00000000    0.00025549    0.00000408
     atom    9 type  1   force =     0.00000000    0.00000000    0.00000000
     atom   10 type  1   force =    -0.00000408   -0.00025549   -0.00000000
     atom   11 type  1   force =     0.00005999    0.00000000    0.00005999
     atom   12 type  1   force =     0.00000000   -0.00025549   -0.00000408
     atom   13 type  1   force =     0.00000000    0.00000000    0.00000000
     atom   14 type  1   force =     0.00004368   -0.00042773    0.00000000
     atom   15 type  1   force =     0.00005999    0.00000000   -0.00005999
     atom   16 type  1   force =     0.00000000   -0.00025549    0.00000408
     atom   17 type  1   force =     0.00000000   -0.00000000    0.00000000
     atom   18 type  1   force =     0.00000408    0.00025549    0.00000000
     atom   19 type  1   force =     0.00003056   -0.00000000   -0.00003056
     atom   20 type  1   force =    -0.00000000    0.00042773    0.00004368
     atom   21 type  1   force =     0.00000000    0.00000000    0.00000000
     atom   22 type  1   force =    -0.00004368    0.00042773    0.00000000
     atom   23 type  1   force =     0.00003056    0.00000000    0.00003056
     atom   24 type  1   force =     0.00000000    0.00042773   -0.00004368
     atom   25 type  1   force =     0.00000000    0.00000000    0.00000000
     atom   26 type  1   force =     0.00000408   -0.00025549   -0.00000000
     atom   27 type  1   force =    -0.00005999    0.00000000    0.00005999
     atom   28 type  1   force =     0.00000000   -0.00042773    0.00004368
     atom   29 type  1   force =     0.00000000    0.00000000    0.00000000
     atom   30 type  1   force =    -0.00004368   -0.00042773   -0.00000000
     atom   31 type  1   force =    -0.00005999    0.00000000   -0.00005999
     atom   32 type  1   force =    -0.00000000   -0.00042773   -0.00004368

     Total force =     0.001427     Total SCF correction =     0.007221
     SCF correction compared to forces is large: reduce conv_thr to get better values

     Computing stress (Cartesian axis) and pressure

          total   stress  (Ry/bohr**3)                   (kbar)     P=   -4.13
  -0.00002253   0.00000000   0.00000000         -3.31      0.00      0.00
   0.00000000  -0.00003907   0.00000000          0.00     -5.75      0.00
   0.00000000   0.00000000  -0.00002253          0.00      0.00     -3.31

     Writing output data file pxrgoilIiTANSuQh.save/

     General routines

     Parallel routines

   This run was terminated on:  16:39:51  11Nov2020

   JOB DONE.