     Program PWSCF v.6.3 starts on 11Nov2020 at 13:59:12

     R & G space division:  proc/nbgrp/npool/nimage =      20
     Reading input from wd/ec/ec_2_002.in
Warning: card &IONS ignored
Warning: card ION_DYNAMICS = 'BFGS', ignored
Warning: card / ignored
Warning: card &CELL ignored
Warning: card CELL_DYNAMICS = 'BFGS', ignored
Warning: card CELL_FACTOR = 2.0, ignored
Warning: card PRESS = 0.0, ignored
Warning: card / ignored

     Current dimensions of program PWSCF are:
     Max number of different atomic species (ntypx) = 10
     Max number of k-points (npk) =  40000
     Max angular momentum in pseudopotentials (lmaxx) =  3
               file Pd.pbe-spn-kjpaw_psl.1.0.0.UPF: wavefunction(s)  4S 5S 4D renormalized

     Subspace diagonalization in iterative solution of the eigenvalue problem:
     a serial algorithm will be used

     bravais-lattice index     =            0
     lattice parameter (alat)  =      14.8394  a.u.
     unit-cell volume          =    3270.4877 (a.u.)^3
     number of atoms/cell      =           32
     number of atomic types    =            1
     number of electrons       =       576.00
     number of Kohn-Sham states=          346
     kinetic-energy cutoff     =      71.0000  Ry
     charge density cutoff     =     430.0000  Ry
     convergence threshold     =      1.0E-06
     mixing beta               =       0.1000
     number of iterations used =           10  plain     mixing
     Exchange-correlation      = SLA PW PBX PBC ( 1  4  3  4 0 0)

     celldm(1)=  14.839420  celldm(2)=   0.000000  celldm(3)=   0.000000
     celldm(4)=   0.000000  celldm(5)=   0.000000  celldm(6)=   0.000000

     crystal axes: (cart. coord. in units of alat)
               a(1) = (   1.000000   0.000000   0.000000 )
               a(2) = (   0.000000   1.000833   0.000000 )
               a(3) = (   0.000000   0.000000   1.000000 )

     reciprocal axes: (cart. coord. in units 2 pi/alat)
               b(1) = (  1.000000  0.000000  0.000000 )
               b(2) = (  0.000000  0.999167  0.000000 )
               b(3) = (  0.000000  0.000000  1.000000 )

     PseudoPot. # 1 for Pd read from file:
     /rds/homes/b/bxp912/pp/Pd.pbe-spn-kjpaw_psl.1.0.0.UPF
     MD5 check sum: 790f2ebce206edfd9790dcb9844eca51
     Pseudo is Projector augmented-wave + core cor, Zval = 18.0
     Generated using "atomic" code by A. Dal Corso v.6.3
     Shape of augmentation charge: PSQ
     Using radial grid of 1235 points,  6 beta functions with:
                l(1) =   0
                l(2) =   0
                l(3) =   1
                l(4) =   1
                l(5) =   2
                l(6) =   2
     Q(r) pseudized with 0 coefficients

     atomic species   valence    mass     pseudopotential
        Pd            18.00   106.42000     Pd( 1.00)

     16 Sym. Ops., with inversion, found

   Cartesian axes

     site n.     atom                  positions (alat units)
         1           Pd  tau(   1) = (   0.0000000   0.0000000   0.0000000  )
         2           Pd  tau(   2) = (   0.2500045   0.2502128   0.0000000  )
         3           Pd  tau(   3) = (   0.2500045   0.0000000   0.2500040  )
         4           Pd  tau(   4) = (   0.0000000   0.2502128   0.2500040  )
         5           Pd  tau(   5) = (   0.0000000   0.0000000   0.4999990  )
         6           Pd  tau(   6) = (   0.2500116   0.2502199   0.4999990  )
         7           Pd  tau(   7) = (   0.2500045   0.0000000   0.7499950  )
         8           Pd  tau(   8) = (   0.0000000   0.2502128   0.7499950  )
         9           Pd  tau(   9) = (   0.0000000   0.5004165   0.0000000  )
        10           Pd  tau(  10) = (   0.2500045   0.7506202   0.0000000  )
        11           Pd  tau(  11) = (   0.2500116   0.5004165   0.2500109  )
        12           Pd  tau(  12) = (   0.0000000   0.7506202   0.2500040  )
        13           Pd  tau(  13) = (   0.0000000   0.5004165   0.4999990  )
        14           Pd  tau(  14) = (   0.2500116   0.7506131   0.4999990  )
        15           Pd  tau(  15) = (   0.2500116   0.5004165   0.7499881  )
        16           Pd  tau(  16) = (   0.0000000   0.7506202   0.7499950  )
        17           Pd  tau(  17) = (   0.4999998   0.0000000   0.0000000  )
        18           Pd  tau(  18) = (   0.7499952   0.2502128   0.0000000  )
        19           Pd  tau(  19) = (   0.7499952   0.0000000   0.2500040  )
        20           Pd  tau(  20) = (   0.4999998   0.2502199   0.2500109  )
        21           Pd  tau(  21) = (   0.4999998   0.0000000   0.4999990  )
        22           Pd  tau(  22) = (   0.7499881   0.2502199   0.4999990  )
        23           Pd  tau(  23) = (   0.7499952   0.0000000   0.7499950  )
        24           Pd  tau(  24) = (   0.4999998   0.2502199   0.7499881  )
        25           Pd  tau(  25) = (   0.4999998   0.5004165   0.0000000  )
        26           Pd  tau(  26) = (   0.7499952   0.7506202   0.0000000  )
        27           Pd  tau(  27) = (   0.7499881   0.5004165   0.2500109  )
        28           Pd  tau(  28) = (   0.4999998   0.7506131   0.2500109  )
        29           Pd  tau(  29) = (   0.4999998   0.5004165   0.4999990  )
        30           Pd  tau(  30) = (   0.7499881   0.7506131   0.4999990  )
        31           Pd  tau(  31) = (   0.7499881   0.5004165   0.7499881  )
        32           Pd  tau(  32) = (   0.4999998   0.7506131   0.7499881  )

     number of k points=    75  Marzari-Vanderbilt smearing, width (Ry)=  0.0400
                       cart. coord. in units 2pi/alat
        k(    1) = (   0.0555556   0.0555093   0.0555556), wk =   0.0219479
        k(    2) = (   0.0555556   0.0555093   0.1666667), wk =   0.0438957
        k(    3) = (   0.0555556   0.0555093   0.2777778), wk =   0.0438957
        k(    4) = (   0.0555556   0.0555093   0.3888889), wk =   0.0438957
        k(    5) = (   0.0555556   0.0555093  -0.5000000), wk =   0.0219479
        k(    6) = (   0.0555556   0.1665279   0.0555556), wk =   0.0219479
        k(    7) = (   0.0555556   0.1665279   0.1666667), wk =   0.0438957
        k(    8) = (   0.0555556   0.1665279   0.2777778), wk =   0.0438957
        k(    9) = (   0.0555556   0.1665279   0.3888889), wk =   0.0438957
        k(   10) = (   0.0555556   0.1665279  -0.5000000), wk =   0.0219479
        k(   11) = (   0.0555556   0.2775465   0.0555556), wk =   0.0219479
        k(   12) = (   0.0555556   0.2775465   0.1666667), wk =   0.0438957
        k(   13) = (   0.0555556   0.2775465   0.2777778), wk =   0.0438957
        k(   14) = (   0.0555556   0.2775465   0.3888889), wk =   0.0438957
        k(   15) = (   0.0555556   0.2775465  -0.5000000), wk =   0.0219479
        k(   16) = (   0.0555556   0.3885651   0.0555556), wk =   0.0219479
        k(   17) = (   0.0555556   0.3885651   0.1666667), wk =   0.0438957
        k(   18) = (   0.0555556   0.3885651   0.2777778), wk =   0.0438957
        k(   19) = (   0.0555556   0.3885651   0.3888889), wk =   0.0438957
        k(   20) = (   0.0555556   0.3885651  -0.5000000), wk =   0.0219479
        k(   21) = (   0.0555556  -0.4995837   0.0555556), wk =   0.0109739
        k(   22) = (   0.0555556  -0.4995837   0.1666667), wk =   0.0219479
        k(   23) = (   0.0555556  -0.4995837   0.2777778), wk =   0.0219479
        k(   24) = (   0.0555556  -0.4995837   0.3888889), wk =   0.0219479
        k(   25) = (   0.0555556  -0.4995837  -0.5000000), wk =   0.0109739
        k(   26) = (   0.1666667   0.0555093   0.1666667), wk =   0.0219479
        k(   27) = (   0.1666667   0.0555093   0.2777778), wk =   0.0438957
        k(   28) = (   0.1666667   0.0555093   0.3888889), wk =   0.0438957
        k(   29) = (   0.1666667   0.0555093  -0.5000000), wk =   0.0219479
        k(   30) = (   0.1666667   0.1665279   0.1666667), wk =   0.0219479
        k(   31) = (   0.1666667   0.1665279   0.2777778), wk =   0.0438957
        k(   32) = (   0.1666667   0.1665279   0.3888889), wk =   0.0438957
        k(   33) = (   0.1666667   0.1665279  -0.5000000), wk =   0.0219479
        k(   34) = (   0.1666667   0.2775465   0.1666667), wk =   0.0219479
        k(   35) = (   0.1666667   0.2775465   0.2777778), wk =   0.0438957
        k(   36) = (   0.1666667   0.2775465   0.3888889), wk =   0.0438957
        k(   37) = (   0.1666667   0.2775465  -0.5000000), wk =   0.0219479
        k(   38) = (   0.1666667   0.3885651   0.1666667), wk =   0.0219479
        k(   39) = (   0.1666667   0.3885651   0.2777778), wk =   0.0438957
        k(   40) = (   0.1666667   0.3885651   0.3888889), wk =   0.0438957
        k(   41) = (   0.1666667   0.3885651  -0.5000000), wk =   0.0219479
        k(   42) = (   0.1666667  -0.4995837   0.1666667), wk =   0.0109739
        k(   43) = (   0.1666667  -0.4995837   0.2777778), wk =   0.0219479
        k(   44) = (   0.1666667  -0.4995837   0.3888889), wk =   0.0219479
        k(   45) = (   0.1666667  -0.4995837  -0.5000000), wk =   0.0109739
        k(   46) = (   0.2777778   0.0555093   0.2777778), wk =   0.0219479
        k(   47) = (   0.2777778   0.0555093   0.3888889), wk =   0.0438957
        k(   48) = (   0.2777778   0.0555093  -0.5000000), wk =   0.0219479
        k(   49) = (   0.2777778   0.1665279   0.2777778), wk =   0.0219479
        k(   50) = (   0.2777778   0.1665279   0.3888889), wk =   0.0438957
        k(   51) = (   0.2777778   0.1665279  -0.5000000), wk =   0.0219479
        k(   52) = (   0.2777778   0.2775465   0.2777778), wk =   0.0219479
        k(   53) = (   0.2777778   0.2775465   0.3888889), wk =   0.0438957
        k(   54) = (   0.2777778   0.2775465  -0.5000000), wk =   0.0219479
        k(   55) = (   0.2777778   0.3885651   0.2777778), wk =   0.0219479
        k(   56) = (   0.2777778   0.3885651   0.3888889), wk =   0.0438957
        k(   57) = (   0.2777778   0.3885651  -0.5000000), wk =   0.0219479
        k(   58) = (   0.2777778  -0.4995837   0.2777778), wk =   0.0109739
        k(   59) = (   0.2777778  -0.4995837   0.3888889), wk =   0.0219479
        k(   60) = (   0.2777778  -0.4995837  -0.5000000), wk =   0.0109739
        k(   61) = (   0.3888889   0.0555093   0.3888889), wk =   0.0219479
        k(   62) = (   0.3888889   0.0555093  -0.5000000), wk =   0.0219479
        k(   63) = (   0.3888889   0.1665279   0.3888889), wk =   0.0219479
        k(   64) = (   0.3888889   0.1665279  -0.5000000), wk =   0.0219479
        k(   65) = (   0.3888889   0.2775465   0.3888889), wk =   0.0219479
        k(   66) = (   0.3888889   0.2775465  -0.5000000), wk =   0.0219479
        k(   67) = (   0.3888889   0.3885651   0.3888889), wk =   0.0219479
        k(   68) = (   0.3888889   0.3885651  -0.5000000), wk =   0.0219479
        k(   69) = (   0.3888889  -0.4995837   0.3888889), wk =   0.0109739
        k(   70) = (   0.3888889  -0.4995837  -0.5000000), wk =   0.0109739
        k(   71) = (  -0.5000000   0.0555093  -0.5000000), wk =   0.0054870
        k(   72) = (  -0.5000000   0.1665279  -0.5000000), wk =   0.0054870
        k(   73) = (  -0.5000000   0.2775465  -0.5000000), wk =   0.0054870
        k(   74) = (  -0.5000000   0.3885651  -0.5000000), wk =   0.0054870
        k(   75) = (  -0.5000000  -0.4995837  -0.5000000), wk =   0.0027435

     Check: negative/imaginary core charge=   -0.000002    0.000000

     Initial potential from superposition of free atoms

     starting charge  575.98776, renormalised to  576.00000
     Starting wfcs are  320 randomized atomic wfcs +   26 random wfcs
     Checking if some PAW data can be deallocated...

     Self-consistent Calculation

     iteration #  1     ecut=    71.00 Ry     beta= 0.10
     Davidson diagonalization with overlap
     ethr =  1.00E-02,  avg # of iterations =  3.1

     Threshold (ethr) on eigenvalues was too large:
     Diagonalizing with lowered threshold

     Davidson diagonalization with overlap
     ethr =  8.35E-05,  avg # of iterations =  3.0

     total energy              =  -16385.02066060 Ry
     Harris-Foulkes estimate   =  -16385.08836781 Ry
     estimated scf accuracy    <       0.47533094 Ry

[...]

     iteration #  5     ecut=    71.00 Ry     beta= 0.10
     Davidson diagonalization with overlap
     c_bands:  1 eigenvalues not converged
     ethr =  3.75E-06,  avg # of iterations =  1.6

[...]

     total energy              =  -16384.95842167 Ry
     Harris-Foulkes estimate   =  -16384.95841877 Ry
     estimated scf accuracy    <       0.00000119 Ry

     iteration # 11     ecut=    71.00 Ry     beta= 0.10
     Davidson diagonalization with overlap
     ethr =  2.07E-10,  avg # of iterations =  2.0

     End of self-consistent calculation

          k = 0.0556 0.0555 0.0556 ( 33024 PWs)   bands (ev):

   -64.8892 -64.8603 -64.8602 -64.8602 -64.8548 -64.8547 -64.8546 -64.8445
   -64.8444 -64.8443 -64.8421 -64.8418 -64.8416 -64.8415 -64.8414 -64.8413
   -64.8413 -64.8411 -64.8410 -64.8405 -64.8388 -64.8388 -64.8387 -64.8264
   -64.8259 -64.8258 -64.8257 -64.8256 -64.8255 -64.8254 -64.8253 -64.8249
   -30.7732 -30.7732 -30.7732 -30.7714 -30.7528 -30.7528 -30.7525 -30.6755
   -30.6750 -30.6749 -30.6712 -30.6712 -30.6706 -30.6706 -30.6706 -30.6705
   -30.6634 -30.6628 -30.6627 -30.6580 -30.6580 -30.6576 -30.6576 -30.6575
   -30.6575 -30.6395 -30.6395 -30.6390 -30.6390 -30.6389 -30.6388 -30.5982
   -30.5982 -30.5980 -30.5738 -30.5738 -30.5736 -30.5678 -30.5678 -30.5676
   -30.5584 -30.5584 -30.5584 -30.5583 -30.5582 -30.5581 -30.5434 -30.5434
   -30.5432 -30.5430 -30.5427 -30.5425 -30.5425 -30.5422 -30.5422 -30.5421
   -30.5420 -30.5414 -30.5404 -30.5404 -30.5399 -30.4773 -30.4773 -30.4769
   -30.4768 -30.4767 -30.4767 -30.4649 -30.4649 -30.4645 -30.4645 -30.4645
   -30.4644 -30.4612 -30.4612 -30.4608 -30.4572 -30.4567 -30.4566 -30.4561
   -30.4561 -30.4560 -30.4558 -30.4558 -30.4557 -30.4556 -30.4555 -30.4552
   -30.4547 -30.4543 -30.4490 -30.4489 -30.4487 -30.4033 -30.4010 -30.4009
    12.2789  14.0361  14.0361  14.0361  14.1042  14.1180  14.1180  14.1180
    14.3055  14.3083  14.3084  14.3109  14.3109  14.3109  14.5006  14.5034
    14.5034  15.0464  15.0464  15.0491  15.0492  15.0493  15.0493  15.2000
    15.2028  15.2029  15.3514  15.3516  15.3516  15.3860  15.3894  15.3895
    15.4338  15.4338  15.4342  15.4343  15.4343  15.4344  15.4356  15.4364
    15.4365  15.7765  15.7765  15.7782  15.7782  15.7788  15.7789  15.8832
    15.8859  15.8860  15.9050  15.9050  15.9078  15.9079  15.9082  15.9082
    15.9617  15.9648  15.9649  16.1317  16.1317  16.1337  16.1337  16.1345
    16.1346  16.2382  16.2383  16.2400  16.2427  16.2428  16.2428  16.2429
    16.2440  16.2441  16.3506  16.3507  16.3511  16.4116  16.4166  16.4166
    16.4325  16.4396  16.4452  16.4452  16.4502  16.4639  16.4823  16.4865
    17.2775  17.2817  17.2818  17.3403  17.3403  17.3421  17.4129  17.4130
    17.4131  17.4132  17.4146  17.4146  17.4191  17.4192  17.4205  17.4647
    17.4693  17.4694  17.5699  17.5699  17.5730  17.6891  17.6892  17.6900
    17.8136  17.8137  17.8164  17.8712  17.8713  17.8737  17.9448  17.9448
    17.9455  17.9456  17.9456  17.9457  17.9642  17.9643  17.9646  18.0083
    18.0161  18.0190  18.0191  18.0192  18.0192  18.0213  18.0213  18.1282
    18.1282  18.1304  18.5148  18.5148  18.5182  18.6166  18.6166  18.6195
    18.9995  18.9995  19.0018  19.1242  19.1242  19.1245  19.1495  19.1528
    19.1697  19.1721  19.1721  19.4008  19.4014  19.4014  19.4539  19.4540
    19.4541  19.4541  19.4582  19.4582  19.4583  19.4588  19.4588  20.1247
    20.4305  20.4305  20.4306  20.9520  20.9521  20.9568  21.4616  21.4616
    21.4618  21.4619  21.4674  21.4674  21.9905  21.9905  21.9970  22.5645
    22.5803  22.5803  26.3255  26.3255  26.3256  26.4823  27.4689  27.4690
    27.4761  27.4762  27.4834  27.4835  28.1611  28.1612  28.1680  28.1680
    28.1757  28.1758  29.5755  29.5755  29.5785  29.5785  29.5854  29.5854
    29.7289  29.7509  29.7509  30.6939  30.7353  30.7353  30.7378  30.7378
    30.7433  30.7434

[...]

          k = 0.3889-0.4996-0.5000 ( 33028 PWs)   bands (ev):

[...]

          k =-0.5000 0.0555-0.5000 ( 33032 PWs)   bands (ev):

[...]

          k =-0.5000-0.4996-0.5000 ( 32968 PWs)   bands (ev):

   -64.8662 -64.8660 -64.8658 -64.8657 -64.8654 -64.8653 -64.8651 -64.8649
   -64.8345 -64.8344 -64.8342 -64.8341 -64.8340 -64.8339 -64.8338 -64.8338
   -64.8337 -64.8336 -64.8336 -64.8335 -64.8334 -64.8334 -64.8333 -64.8333
   -64.8332 -64.8331 -64.8330 -64.8329 -64.8328 -64.8328 -64.8326 -64.8324
   -30.7121 -30.7121 -30.7120 -30.7120 -30.7119 -30.7118 -30.7117 -30.7117
   -30.7116 -30.7115 -30.7115 -30.7115 -30.7115 -30.7114 -30.7114 -30.7114
   -30.7112 -30.7112 -30.7111 -30.7111 -30.7108 -30.7108 -30.7107 -30.7106
   -30.5894 -30.5894 -30.5893 -30.5893 -30.5892 -30.5891 -30.5891 -30.5890
   -30.5525 -30.5524 -30.5524 -30.5523 -30.5523 -30.5522 -30.5522 -30.5522
   -30.5521 -30.5521 -30.5521 -30.5521 -30.5521 -30.5520 -30.5520 -30.5520
   -30.5520 -30.5519 -30.5519 -30.5519 -30.5519 -30.5518 -30.5518 -30.5517
   -30.4985 -30.4985 -30.4985 -30.4985 -30.4983 -30.4983 -30.4983 -30.4983
   -30.4980 -30.4980 -30.4980 -30.4980 -30.4978 -30.4977 -30.4977 -30.4977
   -30.4977 -30.4976 -30.4976 -30.4976 -30.4975 -30.4975 -30.4975 -30.4975
   -30.4282 -30.4282 -30.4281 -30.4281 -30.4279 -30.4279 -30.4277 -30.4276
   -30.4276 -30.4275 -30.4274 -30.4274 -30.4273 -30.4273 -30.4273 -30.4273
    13.9123  13.9127  13.9128  13.9130  13.9131  13.9134  13.9135  13.9138
    14.7608  14.7609  14.7610  14.7610  14.7611  14.7612  14.7612  14.7612
    14.7613  14.7613  14.7613  14.7613  14.7614  14.7614  14.7615  14.7616
    14.7617  14.7618  14.7619  14.7619  14.7619  14.7620  14.7620  14.7620
    15.5164  15.5164  15.5166  15.5167  15.5167  15.5168  15.5168  15.5170
    15.5170  15.5172  15.5172  15.5172  15.5173  15.5174  15.5174  15.5175
    15.5175  15.5175  15.5176  15.5177  15.5178  15.5179  15.5180  15.5182
    16.4474  16.4476  16.4476  16.4476  16.4477  16.4477  16.4477  16.4478
    16.7524  16.7525  16.7525  16.7525  16.7526  16.7526  16.7527  16.7528
    16.7590  16.7591  16.7592  16.7592  16.7593  16.7593  16.7594  16.7595
    16.9385  16.9386  16.9386  16.9387  16.9387  16.9388  16.9388  16.9389
    16.9420  16.9421  16.9422  16.9422  16.9423  16.9424  16.9424  16.9424
    16.9425  16.9425  16.9426  16.9426  16.9427  16.9427  16.9428  16.9429
    17.6578  17.6579  17.6580  17.6580  17.6580  17.6581  17.6581  17.6582
    17.6582  17.6583  17.6584  17.6584  17.6584  17.6585  17.6585  17.6586
    17.6611  17.6612  17.6613  17.6614  17.6616  17.6616  17.6617  17.6619
    18.1631  18.1633  18.1633  18.1634  18.1635  18.1637  18.1637  18.1638
    18.1653  18.1654  18.1654  18.1655  18.1658  18.1659  18.1660  18.1661
    19.2546  19.2546  19.2547  19.2548  19.2548  19.2549  19.2550  19.2550
    19.2559  19.2559  19.2559  19.2559  19.2560  19.2560  19.2560  19.2561
    19.2561  19.2561  19.2562  19.2562  19.2562  19.2563  19.2563  19.2563
    22.8250  22.8251  22.8253  22.8254  22.8257  22.8257  22.8260  22.8261
    22.8318  22.8319  22.8320  22.8322  22.8323  22.8323  22.8323  22.8323
    22.8325  22.8325  22.8326  22.8327  22.8327  22.8329  22.8329  22.8329
    28.2699  28.2700  28.2701  28.2701  28.2702  28.2703  28.2703  28.2704
    28.2705  28.2706  28.2706  28.2707  28.2708  28.2709  28.2709  28.2710
    28.2778  28.2780  28.2781  28.2782  28.2782  28.2783  28.2784  28.2785
    33.5022  33.5036

     the Fermi energy is    19.2768 ev

!    total energy              =  -16384.95843292 Ry
     Harris-Foulkes estimate   =  -16384.95842178 Ry
     estimated scf accuracy    <       0.00000057 Ry

     total all-electron energy =   -322945.812140 Ry

     The total energy is the sum of the following terms:

     one-electron contribution =   -2487.27046806 Ry
     hartree contribution      =    1661.13488878 Ry
     xc contribution           =    -986.50940279 Ry
     ewald contribution        =   -6404.92051140 Ry
     one-center paw contrib.   =   -8167.42607126 Ry
     smearing contrib. (-TS)   =       0.03313181 Ry

     convergence has been achieved in  11 iterations

     Forces acting on atoms (cartesian axes, Ry/au):

     atom    1 type  1   force =     0.00000000   -0.00000000   -0.00000000
     atom    2 type  1   force =    -0.00000342    0.00025094    0.00000000
     atom    3 type  1   force =    -0.00003046    0.00000000   -0.00003046
     atom    4 type  1   force =     0.00000000    0.00025094   -0.00000342
     atom    5 type  1   force =     0.00000000    0.00000000    0.00000000
     atom    6 type  1   force =     0.00004214    0.00042236    0.00000000
     atom    7 type  1   force =    -0.00003046    0.00000000    0.00003046
     atom    8 type  1   force =     0.00000000    0.00025094    0.00000342
     atom    9 type  1   force =     0.00000000    0.00000000    0.00000000
     atom   10 type  1   force =    -0.00000342   -0.00025094    0.00000000
     atom   11 type  1   force =     0.00005757    0.00000000    0.00005757
     atom   12 type  1   force =     0.00000000   -0.00025094   -0.00000342
     atom   13 type  1   force =     0.00000000    0.00000000    0.00000000
     atom   14 type  1   force =     0.00004214   -0.00042236   -0.00000000
     atom   15 type  1   force =     0.00005757    0.00000000   -0.00005757
     atom   16 type  1   force =     0.00000000   -0.00025094    0.00000342
     atom   17 type  1   force =     0.00000000   -0.00000000    0.00000000
     atom   18 type  1   force =     0.00000342    0.00025094    0.00000000
     atom   19 type  1   force =     0.00003046    0.00000000   -0.00003046
     atom   20 type  1   force =     0.00000000    0.00042236    0.00004214
     atom   21 type  1   force =     0.00000000    0.00000000    0.00000000
     atom   22 type  1   force =    -0.00004214    0.00042236   -0.00000000
     atom   23 type  1   force =     0.00003046    0.00000000    0.00003046
     atom   24 type  1   force =    -0.00000000    0.00042236   -0.00004214
     atom   25 type  1   force =     0.00000000    0.00000000   -0.00000000
     atom   26 type  1   force =     0.00000342   -0.00025094    0.00000000
     atom   27 type  1   force =    -0.00005757    0.00000000    0.00005757
     atom   28 type  1   force =    -0.00000000   -0.00042236    0.00004214
     atom   29 type  1   force =     0.00000000    0.00000000    0.00000000
     atom   30 type  1   force =    -0.00004214   -0.00042236    0.00000000
     atom   31 type  1   force =    -0.00005757   -0.00000000   -0.00005757
     atom   32 type  1   force =     0.00000000   -0.00042236   -0.00004214

     Total force =     0.001407     Total SCF correction =     0.007152
     SCF correction compared to forces is large: reduce conv_thr to get better values

     Computing stress (Cartesian axis) and pressure

          total   stress  (Ry/bohr**3)                   (kbar)     P=    0.31
   0.00000341   0.00000000   0.00000000          0.50      0.00      0.00
   0.00000000  -0.00000048   0.00000000          0.00     -0.07      0.00
   0.00000000   0.00000000   0.00000341          0.00      0.00      0.50

     Writing output data file sEXYpExDqpqTUmTy.save/

     General routines

     Parallel routines

   This run was terminated on:  14:39: 6  11Nov2020

   JOB DONE.