     Program PWSCF v.6.3 starts on 11Nov2020 at 16:39:53

     R & G space division:  proc/nbgrp/npool/nimage =      20
     Reading input from wd/ec/ec_2_006.in
Warning: card &IONS ignored
Warning: card ION_DYNAMICS = 'BFGS', ignored
Warning: card / ignored
Warning: card &CELL ignored
Warning: card CELL_DYNAMICS = 'BFGS', ignored
Warning: card CELL_FACTOR = 2.0, ignored
Warning: card PRESS = 0.0, ignored
Warning: card / ignored

     Current dimensions of program PWSCF are:
     Max number of different atomic species (ntypx) = 10
     Max number of k-points (npk) =  40000
     Max angular momentum in pseudopotentials (lmaxx) =  3
               file Pd.pbe-spn-kjpaw_psl.1.0.0.UPF: wavefunction(s)  4S 5S 4D renormalized

     Subspace diagonalization in iterative solution of the eigenvalue problem:
     a serial algorithm will be used

     bravais-lattice index     =            0
     lattice parameter (alat)  =      14.8394  a.u.
     unit-cell volume          =    3281.3803 (a.u.)^3
     number of atoms/cell      =           32
     number of atomic types    =            1
     number of electrons       =       576.00
     number of Kohn-Sham states=          346
     kinetic-energy cutoff     =      71.0000  Ry
     charge density cutoff     =     430.0000  Ry
     convergence threshold     =      1.0E-06
     mixing beta               =       0.1000
     number of iterations used =           10  plain     mixing
     Exchange-correlation      = SLA PW PBX PBC ( 1  4  3  4 0 0)

     celldm(1)=  14.839420  celldm(2)=   0.000000  celldm(3)=   0.000000
     celldm(4)=   0.000000  celldm(5)=   0.000000  celldm(6)=   0.000000

     crystal axes: (cart. coord. in units of alat)
               a(1) = (   1.000000   0.000000   0.000000 )
               a(2) = (   0.000000   1.004167   0.000000 )
               a(3) = (   0.000000   0.000000   1.000000 )

     reciprocal axes: (cart. coord. in units 2 pi/alat)
               b(1) = (  1.000000  0.000000  0.000000 )
               b(2) = (  0.000000  0.995851  0.000000 )
               b(3) = (  0.000000  0.000000  1.000000 )

     PseudoPot. # 1 for Pd read from file:
     /rds/homes/b/bxp912/pp/Pd.pbe-spn-kjpaw_psl.1.0.0.UPF
     MD5 check sum: 790f2ebce206edfd9790dcb9844eca51
     Pseudo is Projector augmented-wave + core cor, Zval = 18.0
     Generated using "atomic" code by A. Dal Corso v.6.3
     Shape of augmentation charge: PSQ
     Using radial grid of 1235 points,  6 beta functions with:
                l(1) =   0
                l(2) =   0
                l(3) =   1
                l(4) =   1
                l(5) =   2
                l(6) =   2
     Q(r) pseudized with 0 coefficients

     atomic species   valence    mass     pseudopotential
        Pd            18.00   106.42000     Pd( 1.00)

     16 Sym. Ops., with inversion, found

   Cartesian axes

     site n.     atom                  positions (alat units)
         1           Pd  tau(   1) = (   0.0000000   0.0000000   0.0000000  )
         2           Pd  tau(   2) = (   0.2500045   0.2510461   0.0000000  )
         3           Pd  tau(   3) = (   0.2500045   0.0000000   0.2500040  )
         4           Pd  tau(   4) = (   0.0000000   0.2510461   0.2500040  )
         5           Pd  tau(   5) = (   0.0000000   0.0000000   0.4999990  )
         6           Pd  tau(   6) = (   0.2500116   0.2510533   0.4999990  )
         7           Pd  tau(   7) = (   0.2500045   0.0000000   0.7499950  )
         8           Pd  tau(   8) = (   0.0000000   0.2510461   0.7499950  )
         9           Pd  tau(   9) = (   0.0000000   0.5020831   0.0000000  )
        10           Pd  tau(  10) = (   0.2500045   0.7531202   0.0000000  )
        11           Pd  tau(  11) = (   0.2500116   0.5020831   0.2500109  )
        12           Pd  tau(  12) = (   0.0000000   0.7531202   0.2500040  )
        13           Pd  tau(  13) = (   0.0000000   0.5020831   0.4999990  )
        14           Pd  tau(  14) = (   0.2500116   0.7531131   0.4999990  )
        15           Pd  tau(  15) = (   0.2500116   0.5020831   0.7499881  )
        16           Pd  tau(  16) = (   0.0000000   0.7531202   0.7499950  )
        17           Pd  tau(  17) = (   0.4999998   0.0000000   0.0000000  )
        18           Pd  tau(  18) = (   0.7499952   0.2510461   0.0000000  )
        19           Pd  tau(  19) = (   0.7499952   0.0000000   0.2500040  )
        20           Pd  tau(  20) = (   0.4999998   0.2510533   0.2500109  )
        21           Pd  tau(  21) = (   0.4999998   0.0000000   0.4999990  )
        22           Pd  tau(  22) = (   0.7499881   0.2510533   0.4999990  )
        23           Pd  tau(  23) = (   0.7499952   0.0000000   0.7499950  )
        24           Pd  tau(  24) = (   0.4999998   0.2510533   0.7499881  )
        25           Pd  tau(  25) = (   0.4999998   0.5020831   0.0000000  )
        26           Pd  tau(  26) = (   0.7499952   0.7531202   0.0000000  )
        27           Pd  tau(  27) = (   0.7499881   0.5020831   0.2500109  )
        28           Pd  tau(  28) = (   0.4999998   0.7531131   0.2500109  )
        29           Pd  tau(  29) = (   0.4999998   0.5020831   0.4999990  )
        30           Pd  tau(  30) = (   0.7499881   0.7531131   0.4999990  )
        31           Pd  tau(  31) = (   0.7499881   0.5020831   0.7499881  )
        32           Pd  tau(  32) = (   0.4999998   0.7531131   0.7499881  )

     number of k points=    75  Marzari-Vanderbilt smearing, width (Ry)=  0.0400
                       cart. coord. in units 2pi/alat
        k(    1) = (   0.0555556   0.0553250   0.0555556), wk =   0.0219479
        k(    2) = (   0.0555556   0.0553250   0.1666667), wk =   0.0438957
        k(    3) = (   0.0555556   0.0553250   0.2777778), wk =   0.0438957
        k(    4) = (   0.0555556   0.0553250   0.3888889), wk =   0.0438957
        k(    5) = (   0.0555556   0.0553250  -0.5000000), wk =   0.0219479
        k(    6) = (   0.0555556   0.1659751   0.0555556), wk =   0.0219479
        k(    7) = (   0.0555556   0.1659751   0.1666667), wk =   0.0438957
        k(    8) = (   0.0555556   0.1659751   0.2777778), wk =   0.0438957
        k(    9) = (   0.0555556   0.1659751   0.3888889), wk =   0.0438957
        k(   10) = (   0.0555556   0.1659751  -0.5000000), wk =   0.0219479
        k(   11) = (   0.0555556   0.2766252   0.0555556), wk =   0.0219479
        k(   12) = (   0.0555556   0.2766252   0.1666667), wk =   0.0438957
        k(   13) = (   0.0555556   0.2766252   0.2777778), wk =   0.0438957
        k(   14) = (   0.0555556   0.2766252   0.3888889), wk =   0.0438957
        k(   15) = (   0.0555556   0.2766252  -0.5000000), wk =   0.0219479
        k(   16) = (   0.0555556   0.3872752   0.0555556), wk =   0.0219479
        k(   17) = (   0.0555556   0.3872752   0.1666667), wk =   0.0438957
        k(   18) = (   0.0555556   0.3872752   0.2777778), wk =   0.0438957
        k(   19) = (   0.0555556   0.3872752   0.3888889), wk =   0.0438957
        k(   20) = (   0.0555556   0.3872752  -0.5000000), wk =   0.0219479
        k(   21) = (   0.0555556  -0.4979253   0.0555556), wk =   0.0109739
        k(   22) = (   0.0555556  -0.4979253   0.1666667), wk =   0.0219479
        k(   23) = (   0.0555556  -0.4979253   0.2777778), wk =   0.0219479
        k(   24) = (   0.0555556  -0.4979253   0.3888889), wk =   0.0219479
        k(   25) = (   0.0555556  -0.4979253  -0.5000000), wk =   0.0109739
        k(   26) = (   0.1666667   0.0553250   0.1666667), wk =   0.0219479
        k(   27) = (   0.1666667   0.0553250   0.2777778), wk =   0.0438957
        k(   28) = (   0.1666667   0.0553250   0.3888889), wk =   0.0438957
        k(   29) = (   0.1666667   0.0553250  -0.5000000), wk =   0.0219479
        k(   30) = (   0.1666667   0.1659751   0.1666667), wk =   0.0219479
        k(   31) = (   0.1666667   0.1659751   0.2777778), wk =   0.0438957
        k(   32) = (   0.1666667   0.1659751   0.3888889), wk =   0.0438957
        k(   33) = (   0.1666667   0.1659751  -0.5000000), wk =   0.0219479
        k(   34) = (   0.1666667   0.2766252   0.1666667), wk =   0.0219479
        k(   35) = (   0.1666667   0.2766252   0.2777778), wk =   0.0438957
        k(   36) = (   0.1666667   0.2766252   0.3888889), wk =   0.0438957
        k(   37) = (   0.1666667   0.2766252  -0.5000000), wk =   0.0219479
        k(   38) = (   0.1666667   0.3872752   0.1666667), wk =   0.0219479
        k(   39) = (   0.1666667   0.3872752   0.2777778), wk =   0.0438957
        k(   40) = (   0.1666667   0.3872752   0.3888889), wk =   0.0438957
        k(   41) = (   0.1666667   0.3872752  -0.5000000), wk =   0.0219479
        k(   42) = (   0.1666667  -0.4979253   0.1666667), wk =   0.0109739
        k(   43) = (   0.1666667  -0.4979253   0.2777778), wk =   0.0219479
        k(   44) = (   0.1666667  -0.4979253   0.3888889), wk =   0.0219479
        k(   45) = (   0.1666667  -0.4979253  -0.5000000), wk =   0.0109739
        k(   46) = (   0.2777778   0.0553250   0.2777778), wk =   0.0219479
        k(   47) = (   0.2777778   0.0553250   0.3888889), wk =   0.0438957
        k(   48) = (   0.2777778   0.0553250  -0.5000000), wk =   0.0219479
        k(   49) = (   0.2777778   0.1659751   0.2777778), wk =   0.0219479
        k(   50) = (   0.2777778   0.1659751   0.3888889), wk =   0.0438957
        k(   51) = (   0.2777778   0.1659751  -0.5000000), wk =   0.0219479
        k(   52) = (   0.2777778   0.2766252   0.2777778), wk =   0.0219479
        k(   53) = (   0.2777778   0.2766252   0.3888889), wk =   0.0438957
        k(   54) = (   0.2777778   0.2766252  -0.5000000), wk =   0.0219479
        k(   55) = (   0.2777778   0.3872752   0.2777778), wk =   0.0219479
        k(   56) = (   0.2777778   0.3872752   0.3888889), wk =   0.0438957
        k(   57) = (   0.2777778   0.3872752  -0.5000000), wk =   0.0219479
        k(   58) = (   0.2777778  -0.4979253   0.2777778), wk =   0.0109739
        k(   59) = (   0.2777778  -0.4979253   0.3888889), wk =   0.0219479
        k(   60) = (   0.2777778  -0.4979253  -0.5000000), wk =   0.0109739
        k(   61) = (   0.3888889   0.0553250   0.3888889), wk =   0.0219479
        k(   62) = (   0.3888889   0.0553250  -0.5000000), wk =   0.0219479
        k(   63) = (   0.3888889   0.1659751   0.3888889), wk =   0.0219479
        k(   64) = (   0.3888889   0.1659751  -0.5000000), wk =   0.0219479
        k(   65) = (   0.3888889   0.2766252   0.3888889), wk =   0.0219479
        k(   66) = (   0.3888889   0.2766252  -0.5000000), wk =   0.0219479
        k(   67) = (   0.3888889   0.3872752   0.3888889), wk =   0.0219479
        k(   68) = (   0.3888889   0.3872752  -0.5000000), wk =   0.0219479
        k(   69) = (   0.3888889  -0.4979253   0.3888889), wk =   0.0109739
        k(   70) = (   0.3888889  -0.4979253  -0.5000000), wk =   0.0109739
        k(   71) = (  -0.5000000   0.0553250  -0.5000000), wk =   0.0054870
        k(   72) = (  -0.5000000   0.1659751  -0.5000000), wk =   0.0054870
        k(   73) = (  -0.5000000   0.2766252  -0.5000000), wk =   0.0054870
        k(   74) = (  -0.5000000   0.3872752  -0.5000000), wk =   0.0054870
        k(   75) = (  -0.5000000  -0.4979253  -0.5000000), wk =   0.0027435

     Check: negative/imaginary core charge=   -0.000002    0.000000

     Initial potential from superposition of free atoms

     starting charge  575.98776, renormalised to  576.00000
     Starting wfcs are  320 randomized atomic wfcs +   26 random wfcs
     Checking if some PAW data can be deallocated...

     Self-consistent Calculation

     iteration #  1     ecut=    71.00 Ry     beta= 0.10
     Davidson diagonalization with overlap
     ethr =  1.00E-02,  avg # of iterations =  3.1

     Threshold (ethr) on eigenvalues was too large:
     Diagonalizing with lowered threshold

     Davidson diagonalization with overlap
     ethr =  8.54E-05,  avg # of iterations =  3.1

     total energy              =  -16385.02258193 Ry
     Harris-Foulkes estimate   =  -16385.09193703 Ry
     estimated scf accuracy    <       0.48598151 Ry

[...]

     total energy              =  -16384.95920921 Ry
     Harris-Foulkes estimate   =  -16384.95920638 Ry
     estimated scf accuracy    <       0.00000111 Ry

     iteration # 11     ecut=    71.00 Ry     beta= 0.10
     Davidson diagonalization with overlap
     ethr =  1.93E-10,  avg # of iterations =  2.0

     End of self-consistent calculation

          k = 0.0556 0.0553 0.0556 ( 33123 PWs)   bands (ev):

   -64.9657 -64.9374 -64.9370 -64.9370 -64.9320 -64.9315 -64.9315 -64.9216
   -64.9215 -64.9215 -64.9193 -64.9189 -64.9188 -64.9187 -64.9186 -64.9185
   -64.9185 -64.9183 -64.9182 -64.9177 -64.9161 -64.9160 -64.9159 -64.9041
   -64.9033 -64.9032 -64.9032 -64.9030 -64.9027 -64.9027 -64.9026 -64.9023
   -30.8475 -30.8475 -30.8474 -30.8456 -30.8277 -30.8277 -30.8262 -30.7524
   -30.7496 -30.7495 -30.7482 -30.7482 -30.7454 -30.7453 -30.7451 -30.7451
   -30.7405 -30.7375 -30.7375 -30.7349 -30.7348 -30.7328 -30.7328 -30.7323
   -30.7322 -30.7167 -30.7167 -30.7142 -30.7142 -30.7139 -30.7138 -30.6748
   -30.6748 -30.6737 -30.6509 -30.6509 -30.6495 -30.6447 -30.6447 -30.6439
   -30.6357 -30.6357 -30.6353 -30.6353 -30.6344 -30.6343 -30.6215 -30.6213
   -30.6208 -30.6207 -30.6202 -30.6201 -30.6198 -30.6198 -30.6195 -30.6182
   -30.6182 -30.6172 -30.6169 -30.6168 -30.6156 -30.5564 -30.5564 -30.5541
   -30.5541 -30.5540 -30.5537 -30.5439 -30.5439 -30.5421 -30.5420 -30.5419
   -30.5418 -30.5398 -30.5397 -30.5379 -30.5360 -30.5353 -30.5352 -30.5347
   -30.5346 -30.5345 -30.5342 -30.5337 -30.5333 -30.5332 -30.5330 -30.5329
   -30.5325 -30.5315 -30.5276 -30.5276 -30.5261 -30.4822 -30.4798 -30.4798
    12.2174  13.9766  13.9767  13.9768  14.0427  14.0563  14.0563  14.0564
    14.2324  14.2465  14.2466  14.2500  14.2502  14.2502  14.4282  14.4420
    14.4421  14.9749  14.9750  14.9890  14.9891  14.9892  14.9893  15.1275
    15.1416  15.1416  15.2831  15.2840  15.2840  15.3109  15.3280  15.3280
    15.3647  15.3648  15.3660  15.3669  15.3670  15.3673  15.3674  15.3700
    15.3701  15.7029  15.7029  15.7114  15.7114  15.7144  15.7145  15.8070
    15.8207  15.8208  15.8281  15.8281  15.8422  15.8422  15.8440  15.8441
    15.8841  15.9000  15.9001  16.0554  16.0554  16.0652  16.0652  16.0692
    16.0692  16.1658  16.1658  16.1709  16.1710  16.1713  16.1714  16.1746
    16.1773  16.1773  16.2795  16.2795  16.2816  16.3261  16.3427  16.3428
    16.3467  16.3759  16.3760  16.3787  16.3822  16.3927  16.4137  16.4241
    17.1902  17.2112  17.2112  17.2619  17.2619  17.2708  17.3340  17.3340
    17.3352  17.3353  17.3409  17.3410  17.3422  17.3423  17.3476  17.3755
    17.3985  17.3986  17.4880  17.4881  17.5034  17.6100  17.6101  17.6143
    17.7308  17.7309  17.7449  17.7886  17.7887  17.8010  17.8634  17.8634
    17.8671  17.8672  17.8675  17.8676  17.8844  17.8845  17.8862  17.9122
    17.9357  17.9358  17.9364  17.9365  17.9470  17.9471  17.9513  18.0445
    18.0446  18.0554  18.4270  18.4270  18.4443  18.5289  18.5289  18.5437
    18.9114  18.9114  18.9230  19.0370  19.0370  19.0391  19.0564  19.0724
    19.0763  19.0888  19.0888  19.3107  19.3116  19.3116  19.3594  19.3594
    19.3604  19.3604  19.3685  19.3737  19.3737  19.3810  19.3810  20.0453
    20.3491  20.3491  20.3493  20.8531  20.8531  20.8766  21.3594  21.3595
    21.3609  21.3609  21.3883  21.3883  21.8866  21.8866  21.9188  22.4360
    22.5142  22.5142  26.2130  26.2131  26.2137  26.3701  27.3356  27.3356
    27.3715  27.3715  27.4077  27.4077  28.0267  28.0268  28.0606  28.0606
    28.0993  28.0994  29.4424  29.4424  29.4574  29.4574  29.4936  29.4936
    29.5504  29.6600  29.6600  30.5460  30.6113  30.6114  30.6241  30.6241
    30.6500  30.6500

[...]

          k = 0.3889-0.4979-0.5000 ( 33144 PWs)   bands (ev):

[...]

          k =-0.5000 0.0553-0.5000 ( 33124 PWs)   bands (ev):

[...]

          k =-0.5000-0.4979-0.5000 ( 33120 PWs)   bands (ev):

   -64.9430 -64.9428 -64.9426 -64.9425 -64.9422 -64.9421 -64.9419 -64.9417
   -64.9120 -64.9118 -64.9116 -64.9115 -64.9113 -64.9112 -64.9111 -64.9111
   -64.9110 -64.9109 -64.9109 -64.9108 -64.9108 -64.9107 -64.9106 -64.9105
   -64.9105 -64.9103 -64.9102 -64.9102 -64.9101 -64.9100 -64.9099 -64.9097
   -30.7875 -30.7874 -30.7873 -30.7873 -30.7873 -30.7872 -30.7871 -30.7871
   -30.7870 -30.7869 -30.7869 -30.7868 -30.7868 -30.7868 -30.7867 -30.7867
   -30.7856 -30.7856 -30.7854 -30.7854 -30.7851 -30.7851 -30.7849 -30.7848
   -30.6659 -30.6658 -30.6658 -30.6657 -30.6656 -30.6656 -30.6655 -30.6655
   -30.6296 -30.6295 -30.6294 -30.6294 -30.6293 -30.6292 -30.6292 -30.6291
   -30.6291 -30.6291 -30.6291 -30.6290 -30.6290 -30.6290 -30.6289 -30.6289
   -30.6289 -30.6288 -30.6288 -30.6288 -30.6288 -30.6287 -30.6287 -30.6286
   -30.5766 -30.5766 -30.5766 -30.5766 -30.5764 -30.5764 -30.5764 -30.5764
   -30.5761 -30.5761 -30.5761 -30.5760 -30.5759 -30.5759 -30.5758 -30.5758
   -30.5742 -30.5742 -30.5742 -30.5741 -30.5740 -30.5740 -30.5740 -30.5740
   -30.5071 -30.5070 -30.5069 -30.5069 -30.5066 -30.5066 -30.5063 -30.5063
   -30.5057 -30.5056 -30.5056 -30.5056 -30.5055 -30.5055 -30.5054 -30.5054
    13.8478  13.8482  13.8483  13.8485  13.8486  13.8489  13.8490  13.8493
    14.6961  14.6962  14.6962  14.6963  14.6964  14.6965  14.6966  14.6966
    14.6984  14.6985  14.6985  14.6985  14.6986  14.6986  14.6987  14.6987
    14.6990  14.6990  14.6991  14.6991  14.6992  14.6992  14.6992  14.6993
    15.4490  15.4491  15.4493  15.4493  15.4494  15.4494  15.4495  15.4497
    15.4497  15.4498  15.4498  15.4500  15.4501  15.4501  15.4502  15.4502
    15.4523  15.4526  15.4527  15.4528  15.4529  15.4530  15.4532  15.4533
    16.3757  16.3759  16.3759  16.3759  16.3759  16.3760  16.3760  16.3760
    16.6658  16.6659  16.6659  16.6660  16.6661  16.6661  16.6661  16.6663
    16.6989  16.6989  16.6990  16.6990  16.6991  16.6991  16.6992  16.6993
    16.8544  16.8545  16.8545  16.8546  16.8547  16.8547  16.8547  16.8549
    16.8729  16.8730  16.8730  16.8731  16.8731  16.8732  16.8732  16.8732
    16.8733  16.8733  16.8734  16.8734  16.8735  16.8736  16.8736  16.8737
    17.5755  17.5756  17.5757  17.5757  17.5757  17.5758  17.5758  17.5759
    17.5759  17.5760  17.5761  17.5761  17.5761  17.5762  17.5762  17.5763
    17.5917  17.5918  17.5919  17.5920  17.5922  17.5922  17.5923  17.5924
    18.0778  18.0780  18.0780  18.0781  18.0782  18.0784  18.0784  18.0785
    18.0887  18.0888  18.0889  18.0889  18.0892  18.0894  18.0894  18.0895
    19.1640  19.1641  19.1642  19.1642  19.1643  19.1643  19.1644  19.1645
    19.1701  19.1701  19.1701  19.1702  19.1702  19.1702  19.1702  19.1703
    19.1703  19.1704  19.1704  19.1704  19.1704  19.1705  19.1705  19.1705
    22.7115  22.7116  22.7118  22.7119  22.7121  22.7122  22.7124  22.7125
    22.7458  22.7458  22.7459  22.7461  22.7462  22.7462  22.7462  22.7463
    22.7464  22.7465  22.7465  22.7466  22.7466  22.7468  22.7468  22.7469
    28.1515  28.1516  28.1517  28.1517  28.1518  28.1519  28.1520  28.1520
    28.1521  28.1522  28.1522  28.1523  28.1524  28.1525  28.1525  28.1526
    28.1902  28.1904  28.1904  28.1905  28.1906  28.1907  28.1908  28.1909
    33.4418  33.4420

     the Fermi energy is    19.1902 ev

!    total energy              =  -16384.95922029 Ry
     Harris-Foulkes estimate   =  -16384.95920931 Ry
     estimated scf accuracy    <       0.00000058 Ry

     total all-electron energy =   -322945.812927 Ry

     The total energy is the sum of the following terms:

     one-electron contribution =   -2498.34717995 Ry
     hartree contribution      =    1665.03242407 Ry
     xc contribution           =    -986.43248145 Ry
     ewald contribution        =   -6397.82392990 Ry
     one-center paw contrib.   =   -8167.42234824 Ry
     smearing contrib. (-TS)   =       0.03429518 Ry

     convergence has been achieved in  11 iterations

     Forces acting on atoms (cartesian axes, Ry/au):

     atom    1 type  1   force =     0.00000000    0.00000000    0.00000000
     atom    2 type  1   force =    -0.00000417    0.00025717    0.00000000
     atom    3 type  1   force =    -0.00003100    0.00000000   -0.00003100
     atom    4 type  1   force =     0.00000000    0.00025717   -0.00000417
     atom    5 type  1   force =     0.00000000    0.00000000    0.00000000
     atom    6 type  1   force =     0.00004430    0.00043189   -0.00000000
     atom    7 type  1   force =    -0.00003100    0.00000000    0.00003100
     atom    8 type  1   force =     0.00000000    0.00025717    0.00000417
     atom    9 type  1   force =     0.00000000    0.00000000    0.00000000
     atom   10 type  1   force =    -0.00000417   -0.00025717    0.00000000
     atom   11 type  1   force =     0.00006093    0.00000000    0.00006093
     atom   12 type  1   force =     0.00000000   -0.00025717   -0.00000417
     atom   13 type  1   force =     0.00000000    0.00000000    0.00000000
     atom   14 type  1   force =     0.00004430   -0.00043189    0.00000000
     atom   15 type  1   force =     0.00006093    0.00000000   -0.00006093
     atom   16 type  1   force =     0.00000000   -0.00025717    0.00000417
     atom   17 type  1   force =     0.00000000    0.00000000   -0.00000000
     atom   18 type  1   force =     0.00000417    0.00025717   -0.00000000
     atom   19 type  1   force =     0.00003100    0.00000000   -0.00003100
     atom   20 type  1   force =     0.00000000    0.00043189    0.00004430
     atom   21 type  1   force =     0.00000000   -0.00000000    0.00000000
     atom   22 type  1   force =    -0.00004430    0.00043189    0.00000000
     atom   23 type  1   force =     0.00003100    0.00000000    0.00003100
     atom   24 type  1   force =     0.00000000    0.00043189   -0.00004430
     atom   25 type  1   force =     0.00000000    0.00000000   -0.00000000
     atom   26 type  1   force =     0.00000417   -0.00025717    0.00000000
     atom   27 type  1   force =    -0.00006093    0.00000000    0.00006093
     atom   28 type  1   force =     0.00000000   -0.00043189    0.00004430
     atom   29 type  1   force =     0.00000000    0.00000000    0.00000000
     atom   30 type  1   force =    -0.00004430   -0.00043189   -0.00000000
     atom   31 type  1   force =    -0.00006093    0.00000000   -0.00006093
     atom   32 type  1   force =     0.00000000   -0.00043189   -0.00004430

     Total force =     0.001440     Total SCF correction =     0.007250
     SCF correction compared to forces is large: reduce conv_thr to get better values

     Computing stress (Cartesian axis) and pressure

          total   stress  (Ry/bohr**3)                   (kbar)     P=   -5.59
  -0.00003108   0.00000000   0.00000000         -4.57      0.00      0.00
   0.00000000  -0.00005182   0.00000000          0.00     -7.62      0.00
   0.00000000   0.00000000  -0.00003108          0.00      0.00     -4.57

     Writing output data file GGIepgAhvmxNryLC.save/

     General routines

     Parallel routines

   This run was terminated on:  17:19:58  11Nov2020

   JOB DONE.