     Program PWSCF v.6.3 starts on 11Nov2020 at 14:39: 9

     R & G space division:  proc/nbgrp/npool/nimage =      20
     Reading input from wd/ec/ec_2_003.in
Warning: card &IONS ignored
Warning: card ION_DYNAMICS = 'BFGS', ignored
Warning: card / ignored
Warning: card &CELL ignored
Warning: card CELL_DYNAMICS = 'BFGS', ignored
Warning: card CELL_FACTOR = 2.0, ignored
Warning: card PRESS = 0.0, ignored
Warning: card / ignored

     Current dimensions of program PWSCF are:
     Max number of different atomic species (ntypx) = 10
     Max number of k-points (npk) =  40000
     Max angular momentum in pseudopotentials (lmaxx) =  3
               file Pd.pbe-spn-kjpaw_psl.1.0.0.UPF: wavefunction(s)  4S 5S 4D renormalized

     Subspace diagonalization in iterative solution of the eigenvalue problem:
     a serial algorithm will be used

     bravais-lattice index     =            0
     lattice parameter (alat)  =      14.8394  a.u.
     unit-cell volume          =    3273.2109 (a.u.)^3
     number of atoms/cell      =           32
     number of atomic types    =            1
     number of electrons       =       576.00
     number of Kohn-Sham states=          346
     kinetic-energy cutoff     =      71.0000  Ry
     charge density cutoff     =     430.0000  Ry
     convergence threshold     =      1.0E-06
     mixing beta               =       0.1000
     number of iterations used =           10  plain     mixing
     Exchange-correlation      = SLA PW PBX PBC ( 1  4  3  4 0 0)

     celldm(1)=  14.839420  celldm(2)=   0.000000  celldm(3)=   0.000000
     celldm(4)=   0.000000  celldm(5)=   0.000000  celldm(6)=   0.000000

     crystal axes: (cart. coord. in units of alat)
               a(1) = (   1.000000   0.000000   0.000000 )
               a(2) = (   0.000000   1.001667   0.000000 )
               a(3) = (   0.000000   0.000000   1.000000 )

     reciprocal axes: (cart. coord. in units 2 pi/alat)
               b(1) = (  1.000000  0.000000  0.000000 )
               b(2) = (  0.000000  0.998336  0.000000 )
               b(3) = (  0.000000  0.000000  1.000000 )

     PseudoPot. # 1 for Pd read from file:
     /rds/homes/b/bxp912/pp/Pd.pbe-spn-kjpaw_psl.1.0.0.UPF
     MD5 check sum: 790f2ebce206edfd9790dcb9844eca51
     Pseudo is Projector augmented-wave + core cor, Zval = 18.0
     Generated using "atomic" code by A. Dal Corso v.6.3
     Shape of augmentation charge: PSQ
     Using radial grid of 1235 points,  6 beta functions with:
                l(1) =   0
                l(2) =   0
                l(3) =   1
                l(4) =   1
                l(5) =   2
                l(6) =   2
     Q(r) pseudized with 0 coefficients

     atomic species   valence    mass     pseudopotential
        Pd            18.00   106.42000     Pd( 1.00)

     16 Sym. Ops., with inversion, found

   Cartesian axes

     site n.     atom                  positions (alat units)
         1           Pd  tau(   1) = (   0.0000000   0.0000000   0.0000000  )
         2           Pd  tau(   2) = (   0.2500045   0.2504211   0.0000000  )
         3           Pd  tau(   3) = (   0.2500045   0.0000000   0.2500040  )
         4           Pd  tau(   4) = (   0.0000000   0.2504211   0.2500040  )
         5           Pd  tau(   5) = (   0.0000000   0.0000000   0.4999990  )
         6           Pd  tau(   6) = (   0.2500116   0.2504283   0.4999990  )
         7           Pd  tau(   7) = (   0.2500045   0.0000000   0.7499950  )
         8           Pd  tau(   8) = (   0.0000000   0.2504211   0.7499950  )
         9           Pd  tau(   9) = (   0.0000000   0.5008331   0.0000000  )
        10           Pd  tau(  10) = (   0.2500045   0.7512452   0.0000000  )
        11           Pd  tau(  11) = (   0.2500116   0.5008331   0.2500109  )
        12           Pd  tau(  12) = (   0.0000000   0.7512452   0.2500040  )
        13           Pd  tau(  13) = (   0.0000000   0.5008331   0.4999990  )
        14           Pd  tau(  14) = (   0.2500116   0.7512381   0.4999990  )
        15           Pd  tau(  15) = (   0.2500116   0.5008331   0.7499881  )
        16           Pd  tau(  16) = (   0.0000000   0.7512452   0.7499950  )
        17           Pd  tau(  17) = (   0.4999998   0.0000000   0.0000000  )
        18           Pd  tau(  18) = (   0.7499952   0.2504211   0.0000000  )
        19           Pd  tau(  19) = (   0.7499952   0.0000000   0.2500040  )
        20           Pd  tau(  20) = (   0.4999998   0.2504283   0.2500109  )
        21           Pd  tau(  21) = (   0.4999998   0.0000000   0.4999990  )
        22           Pd  tau(  22) = (   0.7499881   0.2504283   0.4999990  )
        23           Pd  tau(  23) = (   0.7499952   0.0000000   0.7499950  )
        24           Pd  tau(  24) = (   0.4999998   0.2504283   0.7499881  )
        25           Pd  tau(  25) = (   0.4999998   0.5008331   0.0000000  )
        26           Pd  tau(  26) = (   0.7499952   0.7512452   0.0000000  )
        27           Pd  tau(  27) = (   0.7499881   0.5008331   0.2500109  )
        28           Pd  tau(  28) = (   0.4999998   0.7512381   0.2500109  )
        29           Pd  tau(  29) = (   0.4999998   0.5008331   0.4999990  )
        30           Pd  tau(  30) = (   0.7499881   0.7512381   0.4999990  )
        31           Pd  tau(  31) = (   0.7499881   0.5008331   0.7499881  )
        32           Pd  tau(  32) = (   0.4999998   0.7512381   0.7499881  )

     number of k points=    75  Marzari-Vanderbilt smearing, width (Ry)=  0.0400
                       cart. coord. in units 2pi/alat
        k(    1) = (   0.0555556   0.0554631   0.0555556), wk =   0.0219479
        k(    2) = (   0.0555556   0.0554631   0.1666667), wk =   0.0438957
        k(    3) = (   0.0555556   0.0554631   0.2777778), wk =   0.0438957
        k(    4) = (   0.0555556   0.0554631   0.3888889), wk =   0.0438957
        k(    5) = (   0.0555556   0.0554631  -0.5000000), wk =   0.0219479
        k(    6) = (   0.0555556   0.1663894   0.0555556), wk =   0.0219479
        k(    7) = (   0.0555556   0.1663894   0.1666667), wk =   0.0438957
        k(    8) = (   0.0555556   0.1663894   0.2777778), wk =   0.0438957
        k(    9) = (   0.0555556   0.1663894   0.3888889), wk =   0.0438957
        k(   10) = (   0.0555556   0.1663894  -0.5000000), wk =   0.0219479
        k(   11) = (   0.0555556   0.2773156   0.0555556), wk =   0.0219479
        k(   12) = (   0.0555556   0.2773156   0.1666667), wk =   0.0438957
        k(   13) = (   0.0555556   0.2773156   0.2777778), wk =   0.0438957
        k(   14) = (   0.0555556   0.2773156   0.3888889), wk =   0.0438957
        k(   15) = (   0.0555556   0.2773156  -0.5000000), wk =   0.0219479
        k(   16) = (   0.0555556   0.3882418   0.0555556), wk =   0.0219479
        k(   17) = (   0.0555556   0.3882418   0.1666667), wk =   0.0438957
        k(   18) = (   0.0555556   0.3882418   0.2777778), wk =   0.0438957
        k(   19) = (   0.0555556   0.3882418   0.3888889), wk =   0.0438957
        k(   20) = (   0.0555556   0.3882418  -0.5000000), wk =   0.0219479
        k(   21) = (   0.0555556  -0.4991681   0.0555556), wk =   0.0109739
        k(   22) = (   0.0555556  -0.4991681   0.1666667), wk =   0.0219479
        k(   23) = (   0.0555556  -0.4991681   0.2777778), wk =   0.0219479
        k(   24) = (   0.0555556  -0.4991681   0.3888889), wk =   0.0219479
        k(   25) = (   0.0555556  -0.4991681  -0.5000000), wk =   0.0109739
        k(   26) = (   0.1666667   0.0554631   0.1666667), wk =   0.0219479
        k(   27) = (   0.1666667   0.0554631   0.2777778), wk =   0.0438957
        k(   28) = (   0.1666667   0.0554631   0.3888889), wk =   0.0438957
        k(   29) = (   0.1666667   0.0554631  -0.5000000), wk =   0.0219479
        k(   30) = (   0.1666667   0.1663894   0.1666667), wk =   0.0219479
        k(   31) = (   0.1666667   0.1663894   0.2777778), wk =   0.0438957
        k(   32) = (   0.1666667   0.1663894   0.3888889), wk =   0.0438957
        k(   33) = (   0.1666667   0.1663894  -0.5000000), wk =   0.0219479
        k(   34) = (   0.1666667   0.2773156   0.1666667), wk =   0.0219479
        k(   35) = (   0.1666667   0.2773156   0.2777778), wk =   0.0438957
        k(   36) = (   0.1666667   0.2773156   0.3888889), wk =   0.0438957
        k(   37) = (   0.1666667   0.2773156  -0.5000000), wk =   0.0219479
        k(   38) = (   0.1666667   0.3882418   0.1666667), wk =   0.0219479
        k(   39) = (   0.1666667   0.3882418   0.2777778), wk =   0.0438957
        k(   40) = (   0.1666667   0.3882418   0.3888889), wk =   0.0438957
        k(   41) = (   0.1666667   0.3882418  -0.5000000), wk =   0.0219479
        k(   42) = (   0.1666667  -0.4991681   0.1666667), wk =   0.0109739
        k(   43) = (   0.1666667  -0.4991681   0.2777778), wk =   0.0219479
        k(   44) = (   0.1666667  -0.4991681   0.3888889), wk =   0.0219479
        k(   45) = (   0.1666667  -0.4991681  -0.5000000), wk =   0.0109739
        k(   46) = (   0.2777778   0.0554631   0.2777778), wk =   0.0219479
        k(   47) = (   0.2777778   0.0554631   0.3888889), wk =   0.0438957
        k(   48) = (   0.2777778   0.0554631  -0.5000000), wk =   0.0219479
        k(   49) = (   0.2777778   0.1663894   0.2777778), wk =   0.0219479
        k(   50) = (   0.2777778   0.1663894   0.3888889), wk =   0.0438957
        k(   51) = (   0.2777778   0.1663894  -0.5000000), wk =   0.0219479
        k(   52) = (   0.2777778   0.2773156   0.2777778), wk =   0.0219479
        k(   53) = (   0.2777778   0.2773156   0.3888889), wk =   0.0438957
        k(   54) = (   0.2777778   0.2773156  -0.5000000), wk =   0.0219479
        k(   55) = (   0.2777778   0.3882418   0.2777778), wk =   0.0219479
        k(   56) = (   0.2777778   0.3882418   0.3888889), wk =   0.0438957
        k(   57) = (   0.2777778   0.3882418  -0.5000000), wk =   0.0219479
        k(   58) = (   0.2777778  -0.4991681   0.2777778), wk =   0.0109739
        k(   59) = (   0.2777778  -0.4991681   0.3888889), wk =   0.0219479
        k(   60) = (   0.2777778  -0.4991681  -0.5000000), wk =   0.0109739
        k(   61) = (   0.3888889   0.0554631   0.3888889), wk =   0.0219479
        k(   62) = (   0.3888889   0.0554631  -0.5000000), wk =   0.0219479
        k(   63) = (   0.3888889   0.1663894   0.3888889), wk =   0.0219479
        k(   64) = (   0.3888889   0.1663894  -0.5000000), wk =   0.0219479
        k(   65) = (   0.3888889   0.2773156   0.3888889), wk =   0.0219479
        k(   66) = (   0.3888889   0.2773156  -0.5000000), wk =   0.0219479
        k(   67) = (   0.3888889   0.3882418   0.3888889), wk =   0.0219479
        k(   68) = (   0.3888889   0.3882418  -0.5000000), wk =   0.0219479
        k(   69) = (   0.3888889  -0.4991681   0.3888889), wk =   0.0109739
        k(   70) = (   0.3888889  -0.4991681  -0.5000000), wk =   0.0109739
        k(   71) = (  -0.5000000   0.0554631  -0.5000000), wk =   0.0054870
        k(   72) = (  -0.5000000   0.1663894  -0.5000000), wk =   0.0054870
        k(   73) = (  -0.5000000   0.2773156  -0.5000000), wk =   0.0054870
        k(   74) = (  -0.5000000   0.3882418  -0.5000000), wk =   0.0054870
        k(   75) = (  -0.5000000  -0.4991681  -0.5000000), wk =   0.0027435

     Check: negative/imaginary core charge=   -0.000002    0.000000

     Initial potential from superposition of free atoms

     starting charge  575.98776, renormalised to  576.00000
     Starting wfcs are  320 randomized atomic wfcs +   26 random wfcs
     Checking if some PAW data can be deallocated...

     Self-consistent Calculation

     iteration #  1     ecut=    71.00 Ry     beta= 0.10
     Davidson diagonalization with overlap
     ethr =  1.00E-02,  avg # of iterations =  3.1

     Threshold (ethr) on eigenvalues was too large:
     Diagonalizing with lowered threshold

     Davidson diagonalization with overlap
     ethr =  8.40E-05,  avg # of iterations =  3.1

     total energy              =  -16385.02119376 Ry
     Harris-Foulkes estimate   =  -16385.08931200 Ry
     estimated scf accuracy    <       0.47798667 Ry

[...]

     iteration #  9     ecut=    71.00 Ry     beta= 0.10
     Davidson diagonalization with overlap
     c_bands:  1 eigenvalues not converged
     ethr =  9.57E-09,  avg # of iterations =  1.3

[...]

     total energy              =  -16384.95867605 Ry
     Harris-Foulkes estimate   =  -16384.95867316 Ry
     estimated scf accuracy    <       0.00000117 Ry

     iteration # 11     ecut=    71.00 Ry     beta= 0.10
     Davidson diagonalization with overlap
     ethr =  2.03E-10,  avg # of iterations =  2.0

     End of self-consistent calculation

          k = 0.0556 0.0555 0.0556 ( 33044 PWs)   bands (ev):

   -64.9084 -64.8796 -64.8795 -64.8794 -64.8741 -64.8739 -64.8739 -64.8638
   -64.8637 -64.8637 -64.8614 -64.8611 -64.8609 -64.8608 -64.8608 -64.8607
   -64.8606 -64.8605 -64.8604 -64.8599 -64.8582 -64.8581 -64.8580 -64.8459
   -64.8453 -64.8452 -64.8451 -64.8450 -64.8449 -64.8448 -64.8447 -64.8443
   -30.7918 -30.7918 -30.7917 -30.7900 -30.7716 -30.7716 -30.7710 -30.6948
   -30.6937 -30.6936 -30.6905 -30.6905 -30.6894 -30.6893 -30.6893 -30.6892
   -30.6827 -30.6815 -30.6815 -30.6773 -30.6772 -30.6765 -30.6764 -30.6762
   -30.6762 -30.6588 -30.6588 -30.6578 -30.6578 -30.6577 -30.6576 -30.6174
   -30.6174 -30.6169 -30.5931 -30.5931 -30.5927 -30.5871 -30.5871 -30.5867
   -30.5778 -30.5778 -30.5777 -30.5777 -30.5772 -30.5772 -30.5628 -30.5628
   -30.5625 -30.5624 -30.5622 -30.5620 -30.5619 -30.5617 -30.5616 -30.5612
   -30.5612 -30.5604 -30.5597 -30.5596 -30.5589 -30.4971 -30.4971 -30.4962
   -30.4961 -30.4961 -30.4960 -30.4847 -30.4847 -30.4839 -30.4839 -30.4839
   -30.4838 -30.4809 -30.4809 -30.4802 -30.4769 -30.4763 -30.4762 -30.4758
   -30.4757 -30.4756 -30.4753 -30.4752 -30.4752 -30.4751 -30.4750 -30.4746
   -30.4746 -30.4736 -30.4687 -30.4687 -30.4681 -30.4231 -30.4208 -30.4207
    12.2635  14.0212  14.0212  14.0212  14.0888  14.1025  14.1025  14.1025
    14.2872  14.2928  14.2929  14.2956  14.2957  14.2957  14.4825  14.4880
    14.4880  15.0285  15.0285  15.0341  15.0342  15.0342  15.0343  15.1819
    15.1875  15.1875  15.3343  15.3347  15.3347  15.3672  15.3740  15.3741
    15.4165  15.4165  15.4174  15.4174  15.4176  15.4176  15.4182  15.4198
    15.4198  15.7580  15.7580  15.7615  15.7615  15.7626  15.7627  15.8641
    15.8696  15.8696  15.8857  15.8857  15.8914  15.8914  15.8921  15.8922
    15.9422  15.9486  15.9487  16.1126  16.1126  16.1165  16.1166  16.1181
    16.1182  16.2201  16.2201  16.2236  16.2247  16.2248  16.2249  16.2249
    16.2273  16.2273  16.3328  16.3328  16.3337  16.3902  16.3993  16.3993
    16.4109  16.4252  16.4266  16.4266  16.4358  16.4438  16.4638  16.4709
    17.2557  17.2640  17.2641  17.3206  17.3206  17.3243  17.3931  17.3931
    17.3936  17.3937  17.3965  17.3965  17.3995  17.3996  17.4022  17.4424
    17.4515  17.4516  17.5493  17.5494  17.5555  17.6692  17.6693  17.6710
    17.7928  17.7929  17.7985  17.8505  17.8506  17.8555  17.9244  17.9244
    17.9259  17.9259  17.9261  17.9261  17.9442  17.9443  17.9449  17.9842
    17.9981  17.9982  17.9984  17.9985  17.9999  18.0027  18.0027  18.1073
    18.1073  18.1116  18.4928  18.4928  18.4997  18.5946  18.5946  18.6005
    18.9774  18.9775  18.9821  19.1023  19.1024  19.1031  19.1262  19.1326
    19.1463  19.1512  19.1512  19.3782  19.3792  19.3792  19.4302  19.4303
    19.4306  19.4307  19.4357  19.4371  19.4371  19.4389  19.4389  20.1048
    20.4101  20.4101  20.4102  20.9272  20.9273  20.9367  21.4360  21.4360
    21.4365  21.4366  21.4476  21.4476  21.9644  21.9645  21.9774  22.5323
    22.5637  22.5637  26.2973  26.2973  26.2975  26.4542  27.4355  27.4355
    27.4499  27.4499  27.4644  27.4645  28.1274  28.1275  28.1410  28.1410
    28.1565  28.1567  29.5423  29.5424  29.5484  29.5484  29.5624  29.5624
    29.6841  29.7281  29.7281  30.6564  30.7039  30.7040  30.7090  30.7091
    30.7199  30.7200

[...]

          k = 0.3889-0.4992-0.5000 ( 33072 PWs)   bands (ev):

[...]

          k =-0.5000 0.0555-0.5000 ( 33032 PWs)   bands (ev):

[...]

          k =-0.5000-0.4992-0.5000 ( 33016 PWs)   bands (ev):

   -64.8854 -64.8853 -64.8851 -64.8849 -64.8847 -64.8845 -64.8843 -64.8842
   -64.8539 -64.8538 -64.8536 -64.8535 -64.8534 -64.8533 -64.8532 -64.8532
   -64.8531 -64.8530 -64.8530 -64.8529 -64.8528 -64.8527 -64.8527 -64.8526
   -64.8526 -64.8524 -64.8524 -64.8523 -64.8522 -64.8521 -64.8520 -64.8518
   -30.7310 -30.7309 -30.7309 -30.7308 -30.7308 -30.7307 -30.7306 -30.7306
   -30.7305 -30.7304 -30.7304 -30.7303 -30.7303 -30.7303 -30.7303 -30.7302
   -30.7300 -30.7299 -30.7298 -30.7297 -30.7295 -30.7295 -30.7293 -30.7292
   -30.6086 -30.6085 -30.6085 -30.6084 -30.6083 -30.6083 -30.6082 -30.6082
   -30.5718 -30.5717 -30.5717 -30.5716 -30.5715 -30.5715 -30.5715 -30.5715
   -30.5714 -30.5714 -30.5714 -30.5714 -30.5714 -30.5713 -30.5713 -30.5713
   -30.5713 -30.5712 -30.5712 -30.5712 -30.5711 -30.5711 -30.5711 -30.5710
   -30.5181 -30.5181 -30.5180 -30.5180 -30.5179 -30.5179 -30.5179 -30.5179
   -30.5176 -30.5176 -30.5175 -30.5175 -30.5173 -30.5173 -30.5173 -30.5173
   -30.5169 -30.5168 -30.5168 -30.5168 -30.5167 -30.5167 -30.5167 -30.5166
   -30.4480 -30.4480 -30.4479 -30.4478 -30.4477 -30.4476 -30.4473 -30.4473
   -30.4472 -30.4471 -30.4471 -30.4471 -30.4470 -30.4470 -30.4469 -30.4469
    13.8961  13.8966  13.8966  13.8968  13.8970  13.8973  13.8973  13.8977
    14.7446  14.7447  14.7448  14.7448  14.7449  14.7450  14.7451  14.7451
    14.7455  14.7455  14.7455  14.7456  14.7456  14.7456  14.7457  14.7458
    14.7460  14.7460  14.7461  14.7462  14.7462  14.7462  14.7463  14.7463
    15.4995  15.4996  15.4998  15.4998  15.4998  15.4999  15.4999  15.5001
    15.5002  15.5003  15.5003  15.5005  15.5006  15.5006  15.5006  15.5007
    15.5009  15.5012  15.5013  15.5014  15.5015  15.5016  15.5018  15.5019
    16.4294  16.4296  16.4296  16.4297  16.4297  16.4297  16.4297  16.4298
    16.7307  16.7307  16.7308  16.7308  16.7309  16.7309  16.7309  16.7311
    16.7439  16.7440  16.7441  16.7441  16.7442  16.7442  16.7443  16.7444
    16.9174  16.9175  16.9175  16.9176  16.9177  16.9177  16.9177  16.9179
    16.9247  16.9248  16.9249  16.9249  16.9250  16.9250  16.9251  16.9251
    16.9252  16.9252  16.9253  16.9253  16.9253  16.9254  16.9254  16.9256
    17.6372  17.6373  17.6373  17.6374  17.6374  17.6374  17.6375  17.6376
    17.6376  17.6376  17.6377  17.6377  17.6378  17.6378  17.6379  17.6380
    17.6437  17.6438  17.6439  17.6440  17.6442  17.6442  17.6443  17.6445
    18.1417  18.1419  18.1419  18.1420  18.1421  18.1423  18.1423  18.1425
    18.1461  18.1462  18.1463  18.1463  18.1466  18.1467  18.1468  18.1469
    19.2319  19.2319  19.2320  19.2321  19.2321  19.2322  19.2323  19.2324
    19.2344  19.2344  19.2344  19.2344  19.2345  19.2345  19.2345  19.2346
    19.2346  19.2347  19.2347  19.2347  19.2347  19.2348  19.2348  19.2348
    22.7966  22.7966  22.7969  22.7970  22.7972  22.7973  22.7975  22.7976
    22.8102  22.8103  22.8104  22.8106  22.8107  22.8107  22.8107  22.8108
    22.8109  22.8110  22.8110  22.8111  22.8111  22.8113  22.8113  22.8114
    28.2402  28.2403  28.2404  28.2404  28.2405  28.2406  28.2407  28.2407
    28.2408  28.2409  28.2409  28.2410  28.2411  28.2412  28.2412  28.2413
    28.2559  28.2560  28.2561  28.2562  28.2562  28.2563  28.2565  28.2565
    33.4735  33.4735

     the Fermi energy is    19.2551 ev

!    total energy              =  -16384.95868728 Ry
     Harris-Foulkes estimate   =  -16384.95867616 Ry
     estimated scf accuracy    <       0.00000057 Ry

     total all-electron energy =   -322945.812394 Ry

     The total energy is the sum of the following terms:

     one-electron contribution =   -2490.04327656 Ry
     hartree contribution      =    1662.11001237 Ry
     xc contribution           =    -986.49007664 Ry
     ewald contribution        =   -6403.14362707 Ry
     one-center paw contrib.   =   -8167.42513492 Ry
     smearing contrib. (-TS)   =       0.03341554 Ry

     convergence has been achieved in  11 iterations

     Forces acting on atoms (cartesian axes, Ry/au):

     atom    1 type  1   force =     0.00000000    0.00000000    0.00000000
     atom    2 type  1   force =    -0.00000380    0.00025156   -0.00000000
     atom    3 type  1   force =    -0.00003071    0.00000000   -0.00003071
     atom    4 type  1   force =     0.00000000    0.00025156   -0.00000380
     atom    5 type  1   force =     0.00000000    0.00000000   -0.00000000
     atom    6 type  1   force =     0.00004261    0.00042335    0.00000000
     atom    7 type  1   force =    -0.00003071    0.00000000    0.00003071
     atom    8 type  1   force =     0.00000000    0.00025156    0.00000380
     atom    9 type  1   force =     0.00000000   -0.00000000   -0.00000000
     atom   10 type  1   force =    -0.00000380   -0.00025156   -0.00000000
     atom   11 type  1   force =     0.00005856    0.00000000    0.00005856
     atom   12 type  1   force =     0.00000000   -0.00025156   -0.00000380
     atom   13 type  1   force =     0.00000000    0.00000000    0.00000000
     atom   14 type  1   force =     0.00004261   -0.00042335   -0.00000000
     atom   15 type  1   force =     0.00005856    0.00000000   -0.00005856
     atom   16 type  1   force =     0.00000000   -0.00025156    0.00000380
     atom   17 type  1   force =     0.00000000    0.00000000   -0.00000000
     atom   18 type  1   force =     0.00000380    0.00025156    0.00000000
     atom   19 type  1   force =     0.00003071    0.00000000   -0.00003071
     atom   20 type  1   force =     0.00000000    0.00042335    0.00004261
     atom   21 type  1   force =     0.00000000    0.00000000    0.00000000
     atom   22 type  1   force =    -0.00004261    0.00042335   -0.00000000
     atom   23 type  1   force =     0.00003071    0.00000000    0.00003071
     atom   24 type  1   force =    -0.00000000    0.00042335   -0.00004261
     atom   25 type  1   force =     0.00000000    0.00000000    0.00000000
     atom   26 type  1   force =     0.00000380   -0.00025156   -0.00000000
     atom   27 type  1   force =    -0.00005856    0.00000000    0.00005856
     atom   28 type  1   force =    -0.00000000   -0.00042335    0.00004261
     atom   29 type  1   force =     0.00000000    0.00000000    0.00000000
     atom   30 type  1   force =    -0.00004261   -0.00042335    0.00000000
     atom   31 type  1   force =    -0.00005856    0.00000000   -0.00005856
     atom   32 type  1   force =     0.00000000   -0.00042335   -0.00004261

     Total force =     0.001411     Total SCF correction =     0.007160
     SCF correction compared to forces is large: reduce conv_thr to get better values

     Computing stress (Cartesian axis) and pressure

          total   stress  (Ry/bohr**3)                   (kbar)     P=   -1.17
  -0.00000529   0.00000000   0.00000000         -0.78      0.00      0.00
   0.00000000  -0.00001338   0.00000000          0.00     -1.97      0.00
   0.00000000   0.00000000  -0.00000529          0.00      0.00     -0.78

     Writing output data file OzQNNpVfWQJdIgVy.save/

     General routines

     Parallel routines

   This run was terminated on:  15:19:31  11Nov2020

   JOB DONE.