     Program PWSCF v.6.3 starts on 11Nov2020 at 20:41:30

     R & G space division:  proc/nbgrp/npool/nimage =      20
     Reading input from wd/ec/ec_3_006.in
Warning: card &IONS ignored
Warning: card ION_DYNAMICS = 'BFGS', ignored
Warning: card / ignored
Warning: card &CELL ignored
Warning: card CELL_DYNAMICS = 'BFGS', ignored
Warning: card CELL_FACTOR = 2.0, ignored
Warning: card PRESS = 0.0, ignored
Warning: card / ignored

     Current dimensions of program PWSCF are:
     Max number of different atomic species (ntypx) = 10
     Max number of k-points (npk) =  40000
     Max angular momentum in pseudopotentials (lmaxx) =  3
               file Pd.pbe-spn-kjpaw_psl.1.0.0.UPF: wavefunction(s)  4S 5S 4D renormalized

     Subspace diagonalization in iterative solution of the eigenvalue problem:
     a serial algorithm will be used

     bravais-lattice index     =            0
     lattice parameter (alat)  =      14.8394  a.u.
     unit-cell volume          =    3281.3803 (a.u.)^3
     number of atoms/cell      =           32
     number of atomic types    =            1
     number of electrons       =       576.00
     number of Kohn-Sham states=          346
     kinetic-energy cutoff     =      71.0000  Ry
     charge density cutoff     =     430.0000  Ry
     convergence threshold     =      1.0E-06
     mixing beta               =       0.1000
     number of iterations used =           10  plain     mixing
     Exchange-correlation      = SLA PW PBX PBC ( 1  4  3  4 0 0)

     celldm(1)=  14.839420  celldm(2)=   0.000000  celldm(3)=   0.000000
     celldm(4)=   0.000000  celldm(5)=   0.000000  celldm(6)=   0.000000

     crystal axes: (cart. coord. in units of alat)
               a(1) = (   1.000000   0.000000   0.000000 )
               a(2) = (   0.000000   1.000000   0.000000 )
               a(3) = (   0.000000   0.000000   1.004167 )

     reciprocal axes: (cart. coord. in units 2 pi/alat)
               b(1) = (  1.000000  0.000000  0.000000 )
               b(2) = (  0.000000  1.000000  0.000000 )
               b(3) = (  0.000000  0.000000  0.995851 )

     PseudoPot. # 1 for Pd read from file:
     /rds/homes/b/bxp912/pp/Pd.pbe-spn-kjpaw_psl.1.0.0.UPF
     MD5 check sum: 790f2ebce206edfd9790dcb9844eca51
     Pseudo is Projector augmented-wave + core cor, Zval = 18.0
     Generated using "atomic" code by A. Dal Corso v.6.3
     Shape of augmentation charge: PSQ
     Using radial grid of 1235 points,  6 beta functions with:
                l(1) =   0
                l(2) =   0
                l(3) =   1
                l(4) =   1
                l(5) =   2
                l(6) =   2
     Q(r) pseudized with 0 coefficients

     atomic species   valence    mass     pseudopotential
        Pd            18.00   106.42000     Pd( 1.00)

     16 Sym. Ops., with inversion, found

   Cartesian axes

     site n.     atom                  positions (alat units)
         1           Pd  tau(   1) = (   0.0000000   0.0000000   0.0000000  )
         2           Pd  tau(   2) = (   0.2500045   0.2500045   0.0000000  )
         3           Pd  tau(   3) = (   0.2500045   0.0000000   0.2510456  )
         4           Pd  tau(   4) = (   0.0000000   0.2500045   0.2510456  )
         5           Pd  tau(   5) = (   0.0000000   0.0000000   0.5020823  )
         6           Pd  tau(   6) = (   0.2500116   0.2500116   0.5020823  )
         7           Pd  tau(   7) = (   0.2500045   0.0000000   0.7531200  )
         8           Pd  tau(   8) = (   0.0000000   0.2500045   0.7531200  )
         9           Pd  tau(   9) = (   0.0000000   0.4999998   0.0000000  )
        10           Pd  tau(  10) = (   0.2500045   0.7499952   0.0000000  )
        11           Pd  tau(  11) = (   0.2500116   0.4999998   0.2510526  )
        12           Pd  tau(  12) = (   0.0000000   0.7499952   0.2510456  )
        13           Pd  tau(  13) = (   0.0000000   0.4999998   0.5020823  )
        14           Pd  tau(  14) = (   0.2500116   0.7499881   0.5020823  )
        15           Pd  tau(  15) = (   0.2500116   0.4999998   0.7531131  )
        16           Pd  tau(  16) = (   0.0000000   0.7499952   0.7531200  )
        17           Pd  tau(  17) = (   0.4999998   0.0000000   0.0000000  )
        18           Pd  tau(  18) = (   0.7499952   0.2500045   0.0000000  )
        19           Pd  tau(  19) = (   0.7499952   0.0000000   0.2510456  )
        20           Pd  tau(  20) = (   0.4999998   0.2500116   0.2510526  )
        21           Pd  tau(  21) = (   0.4999998   0.0000000   0.5020823  )
        22           Pd  tau(  22) = (   0.7499881   0.2500116   0.5020823  )
        23           Pd  tau(  23) = (   0.7499952   0.0000000   0.7531200  )
        24           Pd  tau(  24) = (   0.4999998   0.2500116   0.7531131  )
        25           Pd  tau(  25) = (   0.4999998   0.4999998   0.0000000  )
        26           Pd  tau(  26) = (   0.7499952   0.7499952   0.0000000  )
        27           Pd  tau(  27) = (   0.7499881   0.4999998   0.2510526  )
        28           Pd  tau(  28) = (   0.4999998   0.7499881   0.2510526  )
        29           Pd  tau(  29) = (   0.4999998   0.4999998   0.5020823  )
        30           Pd  tau(  30) = (   0.7499881   0.7499881   0.5020823  )
        31           Pd  tau(  31) = (   0.7499881   0.4999998   0.7531131  )
        32           Pd  tau(  32) = (   0.4999998   0.7499881   0.7531131  )

     number of k points=    75  Marzari-Vanderbilt smearing, width (Ry)=  0.0400
                       cart. coord. in units 2pi/alat
        k(    1) = (   0.0555556   0.0555556   0.0553250), wk =   0.0219479
        k(    2) = (   0.0555556   0.0555556   0.1659751), wk =   0.0219479
        k(    3) = (   0.0555556   0.0555556   0.2766252), wk =   0.0219479
        k(    4) = (   0.0555556   0.0555556   0.3872752), wk =   0.0219479
        k(    5) = (   0.0555556   0.0555556  -0.4979253), wk =   0.0109739
        k(    6) = (   0.0555556   0.1666667   0.0553250), wk =   0.0438957
        k(    7) = (   0.0555556   0.1666667   0.1659751), wk =   0.0438957
        k(    8) = (   0.0555556   0.1666667   0.2766252), wk =   0.0438957
        k(    9) = (   0.0555556   0.1666667   0.3872752), wk =   0.0438957
        k(   10) = (   0.0555556   0.1666667  -0.4979253), wk =   0.0219479
        k(   11) = (   0.0555556   0.2777778   0.0553250), wk =   0.0438957
        k(   12) = (   0.0555556   0.2777778   0.1659751), wk =   0.0438957
        k(   13) = (   0.0555556   0.2777778   0.2766252), wk =   0.0438957
        k(   14) = (   0.0555556   0.2777778   0.3872752), wk =   0.0438957
        k(   15) = (   0.0555556   0.2777778  -0.4979253), wk =   0.0219479
        k(   16) = (   0.0555556   0.3888889   0.0553250), wk =   0.0438957
        k(   17) = (   0.0555556   0.3888889   0.1659751), wk =   0.0438957
        k(   18) = (   0.0555556   0.3888889   0.2766252), wk =   0.0438957
        k(   19) = (   0.0555556   0.3888889   0.3872752), wk =   0.0438957
        k(   20) = (   0.0555556   0.3888889  -0.4979253), wk =   0.0219479
        k(   21) = (   0.0555556  -0.5000000   0.0553250), wk =   0.0219479
        k(   22) = (   0.0555556  -0.5000000   0.1659751), wk =   0.0219479
        k(   23) = (   0.0555556  -0.5000000   0.2766252), wk =   0.0219479
        k(   24) = (   0.0555556  -0.5000000   0.3872752), wk =   0.0219479
        k(   25) = (   0.0555556  -0.5000000  -0.4979253), wk =   0.0109739
        k(   26) = (   0.1666667   0.1666667   0.0553250), wk =   0.0219479
        k(   27) = (   0.1666667   0.1666667   0.1659751), wk =   0.0219479
        k(   28) = (   0.1666667   0.1666667   0.2766252), wk =   0.0219479
        k(   29) = (   0.1666667   0.1666667   0.3872752), wk =   0.0219479
        k(   30) = (   0.1666667   0.1666667  -0.4979253), wk =   0.0109739
        k(   31) = (   0.1666667   0.2777778   0.0553250), wk =   0.0438957
        k(   32) = (   0.1666667   0.2777778   0.1659751), wk =   0.0438957
        k(   33) = (   0.1666667   0.2777778   0.2766252), wk =   0.0438957
        k(   34) = (   0.1666667   0.2777778   0.3872752), wk =   0.0438957
        k(   35) = (   0.1666667   0.2777778  -0.4979253), wk =   0.0219479
        k(   36) = (   0.1666667   0.3888889   0.0553250), wk =   0.0438957
        k(   37) = (   0.1666667   0.3888889   0.1659751), wk =   0.0438957
        k(   38) = (   0.1666667   0.3888889   0.2766252), wk =   0.0438957
        k(   39) = (   0.1666667   0.3888889   0.3872752), wk =   0.0438957
        k(   40) = (   0.1666667   0.3888889  -0.4979253), wk =   0.0219479
        k(   41) = (   0.1666667  -0.5000000   0.0553250), wk =   0.0219479
        k(   42) = (   0.1666667  -0.5000000   0.1659751), wk =   0.0219479
        k(   43) = (   0.1666667  -0.5000000   0.2766252), wk =   0.0219479
        k(   44) = (   0.1666667  -0.5000000   0.3872752), wk =   0.0219479
        k(   45) = (   0.1666667  -0.5000000  -0.4979253), wk =   0.0109739
        k(   46) = (   0.2777778   0.2777778   0.0553250), wk =   0.0219479
        k(   47) = (   0.2777778   0.2777778   0.1659751), wk =   0.0219479
        k(   48) = (   0.2777778   0.2777778   0.2766252), wk =   0.0219479
        k(   49) = (   0.2777778   0.2777778   0.3872752), wk =   0.0219479
        k(   50) = (   0.2777778   0.2777778  -0.4979253), wk =   0.0109739
        k(   51) = (   0.2777778   0.3888889   0.0553250), wk =   0.0438957
        k(   52) = (   0.2777778   0.3888889   0.1659751), wk =   0.0438957
        k(   53) = (   0.2777778   0.3888889   0.2766252), wk =   0.0438957
        k(   54) = (   0.2777778   0.3888889   0.3872752), wk =   0.0438957
        k(   55) = (   0.2777778   0.3888889  -0.4979253), wk =   0.0219479
        k(   56) = (   0.2777778  -0.5000000   0.0553250), wk =   0.0219479
        k(   57) = (   0.2777778  -0.5000000   0.1659751), wk =   0.0219479
        k(   58) = (   0.2777778  -0.5000000   0.2766252), wk =   0.0219479
        k(   59) = (   0.2777778  -0.5000000   0.3872752), wk =   0.0219479
        k(   60) = (   0.2777778  -0.5000000  -0.4979253), wk =   0.0109739
        k(   61) = (   0.3888889   0.3888889   0.0553250), wk =   0.0219479
        k(   62) = (   0.3888889   0.3888889   0.1659751), wk =   0.0219479
        k(   63) = (   0.3888889   0.3888889   0.2766252), wk =   0.0219479
        k(   64) = (   0.3888889   0.3888889   0.3872752), wk =   0.0219479
        k(   65) = (   0.3888889   0.3888889  -0.4979253), wk =   0.0109739
        k(   66) = (   0.3888889  -0.5000000   0.0553250), wk =   0.0219479
        k(   67) = (   0.3888889  -0.5000000   0.1659751), wk =   0.0219479
        k(   68) = (   0.3888889  -0.5000000   0.2766252), wk =   0.0219479
        k(   69) = (   0.3888889  -0.5000000   0.3872752), wk =   0.0219479
        k(   70) = (   0.3888889  -0.5000000  -0.4979253), wk =   0.0109739
        k(   71) = (  -0.5000000  -0.5000000   0.0553250), wk =   0.0054870
        k(   72) = (  -0.5000000  -0.5000000   0.1659751), wk =   0.0054870
        k(   73) = (  -0.5000000  -0.5000000   0.2766252), wk =   0.0054870
        k(   74) = (  -0.5000000  -0.5000000   0.3872752), wk =   0.0054870
        k(   75) = (  -0.5000000  -0.5000000  -0.4979253), wk =   0.0027435

     Check: negative/imaginary core charge=   -0.000002    0.000000

     Initial potential from superposition of free atoms

     starting charge  575.98776, renormalised to  576.00000
     Starting wfcs are  320 randomized atomic wfcs +   26 random wfcs
     Checking if some PAW data can be deallocated...

     Self-consistent Calculation

     iteration #  1     ecut=    71.00 Ry     beta= 0.10
     Davidson diagonalization with overlap
     ethr =  1.00E-02,  avg # of iterations =  3.1

     Threshold (ethr) on eigenvalues was too large:
     Diagonalizing with lowered threshold

     Davidson diagonalization with overlap
     ethr =  8.54E-05,  avg # of iterations =  3.2

     total energy              =  -16385.02266202 Ry
     Harris-Foulkes estimate   =  -16385.09204539 Ry
     estimated scf accuracy    <       0.48600681 Ry

[...]

     total energy              =  -16384.95920891 Ry
     Harris-Foulkes estimate   =  -16384.95920579 Ry
     estimated scf accuracy    <       0.00000421 Ry

     iteration # 11     ecut=    71.00 Ry     beta= 0.10
     Davidson diagonalization with overlap
     ethr =  7.31E-10,  avg # of iterations =  1.0

     End of self-consistent calculation

          k = 0.0556 0.0556 0.0553 ( 33123 PWs)   bands (ev):

   -64.9655 -64.9372 -64.9369 -64.9368 -64.9318 -64.9314 -64.9313 -64.9215
   -64.9214 -64.9213 -64.9191 -64.9188 -64.9185 -64.9185 -64.9184 -64.9183
   -64.9183 -64.9182 -64.9181 -64.9176 -64.9159 -64.9158 -64.9158 -64.9035
   -64.9034 -64.9031 -64.9030 -64.9029 -64.9029 -64.9026 -64.9024 -64.9018
   -30.8473 -30.8473 -30.8473 -30.8454 -30.8275 -30.8275 -30.8260 -30.7522
   -30.7494 -30.7494 -30.7480 -30.7480 -30.7452 -30.7452 -30.7450 -30.7449
   -30.7404 -30.7373 -30.7373 -30.7347 -30.7347 -30.7327 -30.7327 -30.7321
   -30.7320 -30.7165 -30.7165 -30.7141 -30.7141 -30.7137 -30.7136 -30.6747
   -30.6747 -30.6736 -30.6507 -30.6507 -30.6494 -30.6446 -30.6445 -30.6437
   -30.6356 -30.6356 -30.6352 -30.6352 -30.6342 -30.6342 -30.6211 -30.6211
   -30.6206 -30.6206 -30.6201 -30.6200 -30.6196 -30.6196 -30.6194 -30.6184
   -30.6180 -30.6171 -30.6166 -30.6164 -30.6154 -30.5562 -30.5562 -30.5540
   -30.5539 -30.5538 -30.5535 -30.5438 -30.5438 -30.5420 -30.5419 -30.5417
   -30.5416 -30.5396 -30.5395 -30.5378 -30.5356 -30.5350 -30.5350 -30.5345
   -30.5345 -30.5344 -30.5344 -30.5337 -30.5335 -30.5331 -30.5328 -30.5324
   -30.5322 -30.5313 -30.5275 -30.5274 -30.5259 -30.4820 -30.4797 -30.4797
    12.2174  13.9766  13.9768  13.9768  14.0427  14.0564  14.0564  14.0564
    14.2324  14.2466  14.2466  14.2501  14.2503  14.2503  14.4282  14.4420
    14.4421  14.9750  14.9751  14.9890  14.9891  14.9893  14.9894  15.1276
    15.1417  15.1417  15.2832  15.2841  15.2841  15.3110  15.3281  15.3281
    15.3648  15.3648  15.3661  15.3669  15.3670  15.3674  15.3674  15.3701
    15.3701  15.7029  15.7029  15.7115  15.7115  15.7145  15.7145  15.8071
    15.8208  15.8209  15.8282  15.8282  15.8423  15.8423  15.8441  15.8442
    15.8841  15.9001  15.9001  16.0555  16.0555  16.0653  16.0653  16.0693
    16.0693  16.1659  16.1659  16.1710  16.1711  16.1714  16.1715  16.1747
    16.1773  16.1774  16.2795  16.2796  16.2817  16.3262  16.3428  16.3428
    16.3468  16.3760  16.3761  16.3789  16.3823  16.3928  16.4138  16.4242
    17.1903  17.2113  17.2113  17.2620  17.2620  17.2709  17.3341  17.3341
    17.3353  17.3354  17.3410  17.3411  17.3423  17.3424  17.3477  17.3756
    17.3986  17.3987  17.4881  17.4882  17.5035  17.6101  17.6102  17.6144
    17.7310  17.7310  17.7450  17.7888  17.7888  17.8011  17.8635  17.8635
    17.8672  17.8673  17.8676  17.8677  17.8845  17.8846  17.8863  17.9123
    17.9358  17.9359  17.9365  17.9366  17.9472  17.9472  17.9514  18.0447
    18.0447  18.0555  18.4271  18.4271  18.4444  18.5290  18.5290  18.5438
    18.9115  18.9115  18.9231  19.0371  19.0371  19.0392  19.0566  19.0726
    19.0764  19.0889  19.0889  19.3108  19.3117  19.3117  19.3595  19.3595
    19.3605  19.3605  19.3686  19.3737  19.3738  19.3811  19.3812  20.0453
    20.3491  20.3492  20.3494  20.8532  20.8532  20.8767  21.3595  21.3596
    21.3609  21.3610  21.3884  21.3884  21.8866  21.8867  21.9189  22.4360
    22.5143  22.5143  26.2131  26.2131  26.2138  26.3702  27.3356  27.3357
    27.3715  27.3715  27.4077  27.4078  28.0268  28.0268  28.0606  28.0606
    28.0993  28.0994  29.4424  29.4424  29.4574  29.4575  29.4936  29.4936
    29.5505  29.6601  29.6601  30.5461  30.6113  30.6114  30.6241  30.6242
    30.6500  30.6501

[...]

          k = 0.3889-0.5000-0.4979 ( 33144 PWs)   bands (ev):

[...]

          k =-0.5000-0.5000 0.0553 ( 33124 PWs)   bands (ev):

[...]

          k =-0.5000-0.5000-0.4979 ( 33120 PWs)   bands (ev):

   -64.9428 -64.9426 -64.9425 -64.9424 -64.9420 -64.9418 -64.9417 -64.9416
   -64.9115 -64.9114 -64.9114 -64.9113 -64.9112 -64.9112 -64.9111 -64.9111
   -64.9108 -64.9107 -64.9106 -64.9105 -64.9105 -64.9105 -64.9104 -64.9104
   -64.9103 -64.9103 -64.9102 -64.9101 -64.9099 -64.9097 -64.9097 -64.9096
   -30.7875 -30.7875 -30.7875 -30.7874 -30.7870 -30.7870 -30.7870 -30.7869
   -30.7868 -30.7868 -30.7867 -30.7867 -30.7863 -30.7863 -30.7863 -30.7863
   -30.7854 -30.7853 -30.7853 -30.7852 -30.7852 -30.7850 -30.7850 -30.7849
   -30.6657 -30.6657 -30.6656 -30.6656 -30.6654 -30.6654 -30.6654 -30.6653
   -30.6293 -30.6293 -30.6293 -30.6292 -30.6291 -30.6291 -30.6291 -30.6291
   -30.6290 -30.6290 -30.6290 -30.6289 -30.6288 -30.6288 -30.6288 -30.6287
   -30.6287 -30.6287 -30.6287 -30.6286 -30.6286 -30.6285 -30.6285 -30.6284
   -30.5764 -30.5764 -30.5763 -30.5763 -30.5763 -30.5762 -30.5762 -30.5762
   -30.5760 -30.5760 -30.5759 -30.5759 -30.5759 -30.5758 -30.5758 -30.5758
   -30.5743 -30.5743 -30.5743 -30.5743 -30.5736 -30.5736 -30.5735 -30.5735
   -30.5068 -30.5067 -30.5066 -30.5065 -30.5065 -30.5064 -30.5064 -30.5063
   -30.5058 -30.5058 -30.5058 -30.5058 -30.5051 -30.5051 -30.5050 -30.5050
    13.8479  13.8483  13.8483  13.8486  13.8486  13.8490  13.8490  13.8493
    14.6961  14.6961  14.6961  14.6961  14.6968  14.6968  14.6968  14.6968
    14.6986  14.6986  14.6986  14.6988  14.6988  14.6988  14.6989  14.6989
    14.6990  14.6990  14.6990  14.6990  14.6992  14.6992  14.6992  14.6992
    15.4491  15.4493  15.4494  15.4495  15.4496  15.4497  15.4497  15.4497
    15.4497  15.4498  15.4498  15.4499  15.4501  15.4501  15.4502  15.4503
    15.4523  15.4525  15.4526  15.4526  15.4531  15.4534  15.4534  15.4534
    16.3757  16.3760  16.3760  16.3760  16.3760  16.3760  16.3761  16.3761
    16.6658  16.6659  16.6659  16.6660  16.6662  16.6663  16.6663  16.6665
    16.6989  16.6990  16.6990  16.6991  16.6992  16.6993  16.6993  16.6995
    16.8543  16.8545  16.8545  16.8546  16.8548  16.8550  16.8550  16.8551
    16.8731  16.8731  16.8732  16.8732  16.8733  16.8733  16.8733  16.8734
    16.8734  16.8734  16.8734  16.8735  16.8735  16.8735  16.8736  16.8736
    17.5755  17.5755  17.5757  17.5757  17.5758  17.5759  17.5760  17.5760
    17.5760  17.5761  17.5761  17.5761  17.5763  17.5763  17.5765  17.5766
    17.5919  17.5920  17.5920  17.5921  17.5922  17.5923  17.5923  17.5924
    18.0779  18.0779  18.0781  18.0781  18.0784  18.0785  18.0786  18.0787
    18.0889  18.0890  18.0891  18.0892  18.0893  18.0893  18.0894  18.0895
    19.1642  19.1643  19.1643  19.1644  19.1644  19.1645  19.1645  19.1646
    19.1700  19.1701  19.1701  19.1701  19.1703  19.1703  19.1703  19.1704
    19.1705  19.1705  19.1705  19.1705  19.1707  19.1707  19.1707  19.1708
    22.7116  22.7119  22.7119  22.7120  22.7121  22.7123  22.7123  22.7125
    22.7458  22.7459  22.7460  22.7461  22.7461  22.7463  22.7463  22.7463
    22.7465  22.7465  22.7466  22.7467  22.7467  22.7469  22.7470  22.7470
    28.1517  28.1517  28.1518  28.1518  28.1519  28.1519  28.1519  28.1520
    28.1523  28.1523  28.1523  28.1524  28.1524  28.1525  28.1525  28.1526
    28.1900  28.1902  28.1903  28.1903  28.1908  28.1910  28.1911  28.1911
    33.4418  33.4423

     the Fermi energy is    19.1904 ev

!    total energy              =  -16384.95922025 Ry
     Harris-Foulkes estimate   =  -16384.95920922 Ry
     estimated scf accuracy    <       0.00000049 Ry

     total all-electron energy =   -322945.812927 Ry

     The total energy is the sum of the following terms:

     one-electron contribution =   -2498.33839857 Ry
     hartree contribution      =    1665.02179371 Ry
     xc contribution           =    -986.43079551 Ry
     ewald contribution        =   -6397.82392990 Ry
     one-center paw contrib.   =   -8167.42218081 Ry
     smearing contrib. (-TS)   =       0.03429084 Ry

     convergence has been achieved in  11 iterations

     Forces acting on atoms (cartesian axes, Ry/au):

     atom    1 type  1   force =     0.00000000    0.00000000    0.00000000
     atom    2 type  1   force =     0.00009311    0.00009311    0.00000000
     atom    3 type  1   force =     0.00005361    0.00000000   -0.00001109
     atom    4 type  1   force =     0.00000000    0.00005361   -0.00001109
     atom    5 type  1   force =     0.00000000    0.00000000    0.00000000
     atom    6 type  1   force =     0.00012466    0.00012466    0.00000000
     atom    7 type  1   force =     0.00005361    0.00000000    0.00001109
     atom    8 type  1   force =     0.00000000    0.00005361    0.00001109
     atom    9 type  1   force =     0.00000000    0.00000000    0.00000000
     atom   10 type  1   force =     0.00009311   -0.00009311    0.00000000
     atom   11 type  1   force =     0.00015825    0.00000000   -0.00001294
     atom   12 type  1   force =     0.00000000   -0.00005361   -0.00001109
     atom   13 type  1   force =     0.00000000    0.00000000    0.00000000
     atom   14 type  1   force =     0.00012466   -0.00012466    0.00000000
     atom   15 type  1   force =     0.00015825    0.00000000    0.00001294
     atom   16 type  1   force =     0.00000000   -0.00005361    0.00001109
     atom   17 type  1   force =     0.00000000    0.00000000    0.00000000
     atom   18 type  1   force =    -0.00009311    0.00009311    0.00000000
     atom   19 type  1   force =    -0.00005361   -0.00000000   -0.00001109
     atom   20 type  1   force =     0.00000000    0.00015825   -0.00001294
     atom   21 type  1   force =     0.00000000    0.00000000    0.00000000
     atom   22 type  1   force =    -0.00012466    0.00012466    0.00000000
     atom   23 type  1   force =    -0.00005361    0.00000000    0.00001109
     atom   24 type  1   force =     0.00000000    0.00015825    0.00001294
     atom   25 type  1   force =     0.00000000    0.00000000    0.00000000
     atom   26 type  1   force =    -0.00009311   -0.00009311    0.00000000
     atom   27 type  1   force =    -0.00015825    0.00000000   -0.00001294
     atom   28 type  1   force =     0.00000000   -0.00015825   -0.00001294
     atom   29 type  1   force =     0.00000000    0.00000000    0.00000000
     atom   30 type  1   force =    -0.00012466   -0.00012466    0.00000000
     atom   31 type  1   force =    -0.00015825    0.00000000    0.00001294
     atom   32 type  1   force =     0.00000000   -0.00015825    0.00001294

     Total force =     0.000648     Total SCF correction =     0.005407
     SCF correction compared to forces is large: reduce conv_thr to get better values

     Computing stress (Cartesian axis) and pressure

          total   stress  (Ry/bohr**3)                   (kbar)     P=   -5.93
  -0.00003328   0.00000000   0.00000000         -4.90      0.00      0.00
   0.00000000  -0.00003328   0.00000000          0.00     -4.90      0.00
   0.00000000   0.00000000  -0.00005446          0.00      0.00     -8.01

     Writing output data file CFqexXEcqcumEClT.save/

     General routines

     Parallel routines

   This run was terminated on:  21:21:18  11Nov2020

   JOB DONE.