     Program PWSCF v.6.3 starts on 11Nov2020 at 18: 1: 8

     R & G space division:  proc/nbgrp/npool/nimage =      20
     Reading input from wd/ec/ec_3_002.in
Warning: card &IONS ignored
Warning: card ION_DYNAMICS = 'BFGS', ignored
Warning: card / ignored
Warning: card &CELL ignored
Warning: card CELL_DYNAMICS = 'BFGS', ignored
Warning: card CELL_FACTOR = 2.0, ignored
Warning: card PRESS = 0.0, ignored
Warning: card / ignored

     Current dimensions of program PWSCF are:
     Max number of different atomic species (ntypx) = 10
     Max number of k-points (npk) =  40000
     Max angular momentum in pseudopotentials (lmaxx) =  3
               file Pd.pbe-spn-kjpaw_psl.1.0.0.UPF: wavefunction(s)  4S 5S 4D renormalized

     Subspace diagonalization in iterative solution of the eigenvalue problem:
     a serial algorithm will be used

     bravais-lattice index     =            0
     lattice parameter (alat)  =      14.8394  a.u.
     unit-cell volume          =    3270.4877 (a.u.)^3
     number of atoms/cell      =           32
     number of atomic types    =            1
     number of electrons       =       576.00
     number of Kohn-Sham states=          346
     kinetic-energy cutoff     =      71.0000  Ry
     charge density cutoff     =     430.0000  Ry
     convergence threshold     =      1.0E-06
     mixing beta               =       0.1000
     number of iterations used =           10  plain     mixing
     Exchange-correlation      = SLA PW PBX PBC ( 1  4  3  4 0 0)

     celldm(1)=  14.839420  celldm(2)=   0.000000  celldm(3)=   0.000000
     celldm(4)=   0.000000  celldm(5)=   0.000000  celldm(6)=   0.000000

     crystal axes: (cart. coord. in units of alat)
               a(1) = (   1.000000   0.000000   0.000000 )
               a(2) = (   0.000000   1.000000   0.000000 )
               a(3) = (   0.000000   0.000000   1.000833 )

     reciprocal axes: (cart. coord. in units 2 pi/alat)
               b(1) = (  1.000000  0.000000  0.000000 )
               b(2) = (  0.000000  1.000000  0.000000 )
               b(3) = (  0.000000  0.000000  0.999167 )

     PseudoPot. # 1 for Pd read from file:
     /rds/homes/b/bxp912/pp/Pd.pbe-spn-kjpaw_psl.1.0.0.UPF
     MD5 check sum: 790f2ebce206edfd9790dcb9844eca51
     Pseudo is Projector augmented-wave + core cor, Zval = 18.0
     Generated using "atomic" code by A. Dal Corso v.6.3
     Shape of augmentation charge: PSQ
     Using radial grid of 1235 points,  6 beta functions with:
                l(1) =   0
                l(2) =   0
                l(3) =   1
                l(4) =   1
                l(5) =   2
                l(6) =   2
     Q(r) pseudized with 0 coefficients

     atomic species   valence    mass     pseudopotential
        Pd            18.00   106.42000     Pd( 1.00)

     16 Sym. Ops., with inversion, found

   Cartesian axes

     site n.     atom                  positions (alat units)
         1           Pd  tau(   1) = (   0.0000000   0.0000000   0.0000000  )
         2           Pd  tau(   2) = (   0.2500045   0.2500045   0.0000000  )
         3           Pd  tau(   3) = (   0.2500045   0.0000000   0.2502123  )
         4           Pd  tau(   4) = (   0.0000000   0.2500045   0.2502123  )
         5           Pd  tau(   5) = (   0.0000000   0.0000000   0.5004157  )
         6           Pd  tau(   6) = (   0.2500116   0.2500116   0.5004157  )
         7           Pd  tau(   7) = (   0.2500045   0.0000000   0.7506200  )
         8           Pd  tau(   8) = (   0.0000000   0.2500045   0.7506200  )
         9           Pd  tau(   9) = (   0.0000000   0.4999998   0.0000000  )
        10           Pd  tau(  10) = (   0.2500045   0.7499952   0.0000000  )
        11           Pd  tau(  11) = (   0.2500116   0.4999998   0.2502192  )
        12           Pd  tau(  12) = (   0.0000000   0.7499952   0.2502123  )
        13           Pd  tau(  13) = (   0.0000000   0.4999998   0.5004157  )
        14           Pd  tau(  14) = (   0.2500116   0.7499881   0.5004157  )
        15           Pd  tau(  15) = (   0.2500116   0.4999998   0.7506131  )
        16           Pd  tau(  16) = (   0.0000000   0.7499952   0.7506200  )
        17           Pd  tau(  17) = (   0.4999998   0.0000000   0.0000000  )
        18           Pd  tau(  18) = (   0.7499952   0.2500045   0.0000000  )
        19           Pd  tau(  19) = (   0.7499952   0.0000000   0.2502123  )
        20           Pd  tau(  20) = (   0.4999998   0.2500116   0.2502192  )
        21           Pd  tau(  21) = (   0.4999998   0.0000000   0.5004157  )
        22           Pd  tau(  22) = (   0.7499881   0.2500116   0.5004157  )
        23           Pd  tau(  23) = (   0.7499952   0.0000000   0.7506200  )
        24           Pd  tau(  24) = (   0.4999998   0.2500116   0.7506131  )
        25           Pd  tau(  25) = (   0.4999998   0.4999998   0.0000000  )
        26           Pd  tau(  26) = (   0.7499952   0.7499952   0.0000000  )
        27           Pd  tau(  27) = (   0.7499881   0.4999998   0.2502192  )
        28           Pd  tau(  28) = (   0.4999998   0.7499881   0.2502192  )
        29           Pd  tau(  29) = (   0.4999998   0.4999998   0.5004157  )
        30           Pd  tau(  30) = (   0.7499881   0.7499881   0.5004157  )
        31           Pd  tau(  31) = (   0.7499881   0.4999998   0.7506131  )
        32           Pd  tau(  32) = (   0.4999998   0.7499881   0.7506131  )

     number of k points=    75  Marzari-Vanderbilt smearing, width (Ry)=  0.0400
                       cart. coord. in units 2pi/alat
        k(    1) = (   0.0555556   0.0555556   0.0555093), wk =   0.0219479
        k(    2) = (   0.0555556   0.0555556   0.1665279), wk =   0.0219479
        k(    3) = (   0.0555556   0.0555556   0.2775465), wk =   0.0219479
        k(    4) = (   0.0555556   0.0555556   0.3885651), wk =   0.0219479
        k(    5) = (   0.0555556   0.0555556  -0.4995837), wk =   0.0109739
        k(    6) = (   0.0555556   0.1666667   0.0555093), wk =   0.0438957
        k(    7) = (   0.0555556   0.1666667   0.1665279), wk =   0.0438957
        k(    8) = (   0.0555556   0.1666667   0.2775465), wk =   0.0438957
        k(    9) = (   0.0555556   0.1666667   0.3885651), wk =   0.0438957
        k(   10) = (   0.0555556   0.1666667  -0.4995837), wk =   0.0219479
        k(   11) = (   0.0555556   0.2777778   0.0555093), wk =   0.0438957
        k(   12) = (   0.0555556   0.2777778   0.1665279), wk =   0.0438957
        k(   13) = (   0.0555556   0.2777778   0.2775465), wk =   0.0438957
        k(   14) = (   0.0555556   0.2777778   0.3885651), wk =   0.0438957
        k(   15) = (   0.0555556   0.2777778  -0.4995837), wk =   0.0219479
        k(   16) = (   0.0555556   0.3888889   0.0555093), wk =   0.0438957
        k(   17) = (   0.0555556   0.3888889   0.1665279), wk =   0.0438957
        k(   18) = (   0.0555556   0.3888889   0.2775465), wk =   0.0438957
        k(   19) = (   0.0555556   0.3888889   0.3885651), wk =   0.0438957
        k(   20) = (   0.0555556   0.3888889  -0.4995837), wk =   0.0219479
        k(   21) = (   0.0555556  -0.5000000   0.0555093), wk =   0.0219479
        k(   22) = (   0.0555556  -0.5000000   0.1665279), wk =   0.0219479
        k(   23) = (   0.0555556  -0.5000000   0.2775465), wk =   0.0219479
        k(   24) = (   0.0555556  -0.5000000   0.3885651), wk =   0.0219479
        k(   25) = (   0.0555556  -0.5000000  -0.4995837), wk =   0.0109739
        k(   26) = (   0.1666667   0.1666667   0.0555093), wk =   0.0219479
        k(   27) = (   0.1666667   0.1666667   0.1665279), wk =   0.0219479
        k(   28) = (   0.1666667   0.1666667   0.2775465), wk =   0.0219479
        k(   29) = (   0.1666667   0.1666667   0.3885651), wk =   0.0219479
        k(   30) = (   0.1666667   0.1666667  -0.4995837), wk =   0.0109739
        k(   31) = (   0.1666667   0.2777778   0.0555093), wk =   0.0438957
        k(   32) = (   0.1666667   0.2777778   0.1665279), wk =   0.0438957
        k(   33) = (   0.1666667   0.2777778   0.2775465), wk =   0.0438957
        k(   34) = (   0.1666667   0.2777778   0.3885651), wk =   0.0438957
        k(   35) = (   0.1666667   0.2777778  -0.4995837), wk =   0.0219479
        k(   36) = (   0.1666667   0.3888889   0.0555093), wk =   0.0438957
        k(   37) = (   0.1666667   0.3888889   0.1665279), wk =   0.0438957
        k(   38) = (   0.1666667   0.3888889   0.2775465), wk =   0.0438957
        k(   39) = (   0.1666667   0.3888889   0.3885651), wk =   0.0438957
        k(   40) = (   0.1666667   0.3888889  -0.4995837), wk =   0.0219479
        k(   41) = (   0.1666667  -0.5000000   0.0555093), wk =   0.0219479
        k(   42) = (   0.1666667  -0.5000000   0.1665279), wk =   0.0219479
        k(   43) = (   0.1666667  -0.5000000   0.2775465), wk =   0.0219479
        k(   44) = (   0.1666667  -0.5000000   0.3885651), wk =   0.0219479
        k(   45) = (   0.1666667  -0.5000000  -0.4995837), wk =   0.0109739
        k(   46) = (   0.2777778   0.2777778   0.0555093), wk =   0.0219479
        k(   47) = (   0.2777778   0.2777778   0.1665279), wk =   0.0219479
        k(   48) = (   0.2777778   0.2777778   0.2775465), wk =   0.0219479
        k(   49) = (   0.2777778   0.2777778   0.3885651), wk =   0.0219479
        k(   50) = (   0.2777778   0.2777778  -0.4995837), wk =   0.0109739
        k(   51) = (   0.2777778   0.3888889   0.0555093), wk =   0.0438957
        k(   52) = (   0.2777778   0.3888889   0.1665279), wk =   0.0438957
        k(   53) = (   0.2777778   0.3888889   0.2775465), wk =   0.0438957
        k(   54) = (   0.2777778   0.3888889   0.3885651), wk =   0.0438957
        k(   55) = (   0.2777778   0.3888889  -0.4995837), wk =   0.0219479
        k(   56) = (   0.2777778  -0.5000000   0.0555093), wk =   0.0219479
        k(   57) = (   0.2777778  -0.5000000   0.1665279), wk =   0.0219479
        k(   58) = (   0.2777778  -0.5000000   0.2775465), wk =   0.0219479
        k(   59) = (   0.2777778  -0.5000000   0.3885651), wk =   0.0219479
        k(   60) = (   0.2777778  -0.5000000  -0.4995837), wk =   0.0109739
        k(   61) = (   0.3888889   0.3888889   0.0555093), wk =   0.0219479
        k(   62) = (   0.3888889   0.3888889   0.1665279), wk =   0.0219479
        k(   63) = (   0.3888889   0.3888889   0.2775465), wk =   0.0219479
        k(   64) = (   0.3888889   0.3888889   0.3885651), wk =   0.0219479
        k(   65) = (   0.3888889   0.3888889  -0.4995837), wk =   0.0109739
        k(   66) = (   0.3888889  -0.5000000   0.0555093), wk =   0.0219479
        k(   67) = (   0.3888889  -0.5000000   0.1665279), wk =   0.0219479
        k(   68) = (   0.3888889  -0.5000000   0.2775465), wk =   0.0219479
        k(   69) = (   0.3888889  -0.5000000   0.3885651), wk =   0.0219479
        k(   70) = (   0.3888889  -0.5000000  -0.4995837), wk =   0.0109739
        k(   71) = (  -0.5000000  -0.5000000   0.0555093), wk =   0.0054870
        k(   72) = (  -0.5000000  -0.5000000   0.1665279), wk =   0.0054870
        k(   73) = (  -0.5000000  -0.5000000   0.2775465), wk =   0.0054870
        k(   74) = (  -0.5000000  -0.5000000   0.3885651), wk =   0.0054870
        k(   75) = (  -0.5000000  -0.5000000  -0.4995837), wk =   0.0027435

     Check: negative/imaginary core charge=   -0.000002    0.000000

     Initial potential from superposition of free atoms

     starting charge  575.98776, renormalised to  576.00000
     Starting wfcs are  320 randomized atomic wfcs +   26 random wfcs
     Checking if some PAW data can be deallocated...

     Self-consistent Calculation

     iteration #  1     ecut=    71.00 Ry     beta= 0.10
     Davidson diagonalization with overlap
     ethr =  1.00E-02,  avg # of iterations =  3.1

     Threshold (ethr) on eigenvalues was too large:
     Diagonalizing with lowered threshold

     Davidson diagonalization with overlap
     ethr =  8.35E-05,  avg # of iterations =  3.0

     total energy              =  -16385.02072665 Ry
     Harris-Foulkes estimate   =  -16385.08846745 Ry
     estimated scf accuracy    <       0.47539368 Ry

[...]

     total energy              =  -16384.95842141 Ry
     Harris-Foulkes estimate   =  -16384.95841831 Ry
     estimated scf accuracy    <       0.00000366 Ry

     iteration # 11     ecut=    71.00 Ry     beta= 0.10
     Davidson diagonalization with overlap
     ethr =  6.36E-10,  avg # of iterations =  1.1

     End of self-consistent calculation

          k = 0.0556 0.0556 0.0555 ( 33024 PWs)   bands (ev):

   -64.8891 -64.8602 -64.8601 -64.8600 -64.8546 -64.8545 -64.8545 -64.8444
   -64.8443 -64.8442 -64.8420 -64.8416 -64.8414 -64.8413 -64.8412 -64.8412
   -64.8411 -64.8411 -64.8409 -64.8404 -64.8387 -64.8386 -64.8386 -64.8262
   -64.8257 -64.8256 -64.8255 -64.8254 -64.8254 -64.8254 -64.8252 -64.8247
   -30.7730 -30.7730 -30.7730 -30.7712 -30.7527 -30.7527 -30.7524 -30.6754
   -30.6749 -30.6748 -30.6711 -30.6710 -30.6705 -30.6705 -30.6704 -30.6704
   -30.6632 -30.6627 -30.6626 -30.6579 -30.6579 -30.6574 -30.6574 -30.6574
   -30.6573 -30.6393 -30.6393 -30.6388 -30.6388 -30.6388 -30.6387 -30.5981
   -30.5981 -30.5979 -30.5737 -30.5736 -30.5735 -30.5676 -30.5676 -30.5675
   -30.5583 -30.5583 -30.5582 -30.5582 -30.5580 -30.5580 -30.5433 -30.5433
   -30.5431 -30.5426 -30.5424 -30.5424 -30.5424 -30.5423 -30.5421 -30.5419
   -30.5418 -30.5415 -30.5403 -30.5401 -30.5398 -30.4772 -30.4771 -30.4767
   -30.4767 -30.4766 -30.4765 -30.4647 -30.4647 -30.4644 -30.4644 -30.4643
   -30.4642 -30.4611 -30.4610 -30.4608 -30.4567 -30.4567 -30.4564 -30.4560
   -30.4560 -30.4559 -30.4559 -30.4558 -30.4556 -30.4555 -30.4552 -30.4549
   -30.4546 -30.4542 -30.4489 -30.4488 -30.4485 -30.4032 -30.4009 -30.4008
    12.2789  14.0361  14.0361  14.0362  14.1043  14.1180  14.1180  14.1180
    14.3055  14.3083  14.3084  14.3110  14.3110  14.3110  14.5006  14.5034
    14.5035  15.0464  15.0465  15.0492  15.0493  15.0493  15.0494  15.2001
    15.2029  15.2030  15.3515  15.3517  15.3517  15.3861  15.3895  15.3895
    15.4339  15.4339  15.4343  15.4344  15.4344  15.4344  15.4357  15.4364
    15.4365  15.7766  15.7766  15.7783  15.7783  15.7789  15.7789  15.8832
    15.8860  15.8860  15.9051  15.9051  15.9079  15.9079  15.9083  15.9083
    15.9617  15.9649  15.9650  16.1318  16.1318  16.1338  16.1338  16.1346
    16.1346  16.2383  16.2383  16.2401  16.2428  16.2428  16.2429  16.2430
    16.2441  16.2441  16.3506  16.3507  16.3511  16.4117  16.4166  16.4167
    16.4325  16.4397  16.4453  16.4453  16.4503  16.4640  16.4824  16.4866
    17.2776  17.2818  17.2818  17.3404  17.3404  17.3422  17.4130  17.4130
    17.4132  17.4133  17.4147  17.4147  17.4192  17.4193  17.4206  17.4648
    17.4693  17.4694  17.5699  17.5700  17.5730  17.6891  17.6892  17.6900
    17.8137  17.8138  17.8165  17.8713  17.8714  17.8738  17.9449  17.9449
    17.9456  17.9457  17.9457  17.9458  17.9643  17.9643  17.9646  18.0084
    18.0162  18.0191  18.0192  18.0193  18.0193  18.0214  18.0214  18.1283
    18.1283  18.1305  18.5148  18.5149  18.5184  18.6167  18.6167  18.6196
    18.9996  18.9996  19.0019  19.1243  19.1243  19.1247  19.1496  19.1529
    19.1698  19.1722  19.1722  19.4009  19.4015  19.4015  19.4540  19.4541
    19.4542  19.4542  19.4580  19.4583  19.4584  19.4589  19.4592  20.1247
    20.4305  20.4305  20.4306  20.9521  20.9521  20.9568  21.4616  21.4617
    21.4619  21.4619  21.4674  21.4674  21.9905  21.9906  21.9970  22.5645
    22.5803  22.5803  26.3255  26.3256  26.3257  26.4824  27.4689  27.4690
    27.4762  27.4762  27.4834  27.4835  28.1612  28.1612  28.1680  28.1680
    28.1757  28.1759  29.5755  29.5755  29.5785  29.5785  29.5854  29.5854
    29.7289  29.7509  29.7510  30.6937  30.7353  30.7354  30.7378  30.7379
    30.7434  30.7435

[...]

          k = 0.3889-0.5000-0.4996 ( 33028 PWs)   bands (ev):

[...]

          k =-0.5000-0.5000 0.0555 ( 33032 PWs)   bands (ev):

[...]

          k =-0.5000-0.5000-0.4996 ( 32968 PWs)   bands (ev):

   -64.8660 -64.8658 -64.8657 -64.8656 -64.8652 -64.8651 -64.8650 -64.8649
   -64.8343 -64.8341 -64.8341 -64.8340 -64.8339 -64.8338 -64.8337 -64.8337
   -64.8336 -64.8334 -64.8333 -64.8333 -64.8333 -64.8332 -64.8331 -64.8331
   -64.8330 -64.8330 -64.8330 -64.8328 -64.8327 -64.8326 -64.8325 -64.8324
   -30.7121 -30.7120 -30.7120 -30.7120 -30.7116 -30.7116 -30.7115 -30.7115
   -30.7114 -30.7114 -30.7113 -30.7113 -30.7113 -30.7112 -30.7111 -30.7111
   -30.7111 -30.7110 -30.7109 -30.7109 -30.7109 -30.7108 -30.7108 -30.7108
   -30.5893 -30.5892 -30.5892 -30.5892 -30.5890 -30.5890 -30.5890 -30.5889
   -30.5523 -30.5522 -30.5522 -30.5522 -30.5522 -30.5521 -30.5521 -30.5521
   -30.5520 -30.5519 -30.5519 -30.5519 -30.5519 -30.5519 -30.5519 -30.5519
   -30.5518 -30.5518 -30.5518 -30.5518 -30.5517 -30.5517 -30.5517 -30.5516
   -30.4982 -30.4982 -30.4982 -30.4982 -30.4982 -30.4981 -30.4980 -30.4980
   -30.4980 -30.4979 -30.4979 -30.4979 -30.4978 -30.4978 -30.4978 -30.4977
   -30.4977 -30.4977 -30.4977 -30.4977 -30.4971 -30.4971 -30.4971 -30.4971
   -30.4279 -30.4279 -30.4279 -30.4278 -30.4278 -30.4278 -30.4278 -30.4277
   -30.4276 -30.4275 -30.4275 -30.4274 -30.4271 -30.4271 -30.4271 -30.4270
    13.9124  13.9128  13.9128  13.9131  13.9131  13.9135  13.9135  13.9138
    14.7608  14.7608  14.7608  14.7609  14.7613  14.7614  14.7614  14.7614
    14.7615  14.7615  14.7615  14.7616  14.7616  14.7616  14.7616  14.7616
    14.7617  14.7617  14.7618  14.7618  14.7619  14.7620  14.7620  14.7620
    15.5165  15.5166  15.5168  15.5168  15.5169  15.5170  15.5171  15.5171
    15.5171  15.5171  15.5171  15.5171  15.5173  15.5174  15.5174  15.5174
    15.5175  15.5175  15.5175  15.5176  15.5180  15.5182  15.5182  15.5183
    16.4475  16.4477  16.4477  16.4477  16.4477  16.4478  16.4478  16.4478
    16.7524  16.7525  16.7525  16.7526  16.7527  16.7528  16.7528  16.7530
    16.7591  16.7591  16.7591  16.7593  16.7594  16.7594  16.7595  16.7596
    16.9384  16.9385  16.9385  16.9386  16.9389  16.9390  16.9390  16.9392
    16.9423  16.9423  16.9423  16.9424  16.9424  16.9425  16.9425  16.9425
    16.9425  16.9426  16.9426  16.9426  16.9427  16.9427  16.9428  16.9428
    17.6578  17.6578  17.6579  17.6580  17.6581  17.6582  17.6583  17.6583
    17.6583  17.6584  17.6584  17.6584  17.6586  17.6586  17.6588  17.6589
    17.6613  17.6614  17.6614  17.6615  17.6616  17.6617  17.6617  17.6618
    18.1632  18.1632  18.1633  18.1634  18.1637  18.1638  18.1639  18.1639
    18.1655  18.1656  18.1656  18.1657  18.1658  18.1659  18.1659  18.1661
    19.2547  19.2548  19.2548  19.2549  19.2549  19.2550  19.2550  19.2551
    19.2558  19.2558  19.2558  19.2559  19.2560  19.2561  19.2561  19.2561
    19.2562  19.2562  19.2562  19.2563  19.2565  19.2565  19.2565  19.2566
    22.8251  22.8254  22.8254  22.8255  22.8256  22.8258  22.8258  22.8260
    22.8318  22.8320  22.8320  22.8321  22.8321  22.8323  22.8324  22.8324
    22.8325  22.8326  22.8326  22.8328  22.8328  22.8330  22.8330  22.8330
    28.2700  28.2700  28.2702  28.2702  28.2702  28.2703  28.2703  28.2704
    28.2706  28.2707  28.2707  28.2707  28.2708  28.2709  28.2709  28.2709
    28.2776  28.2779  28.2779  28.2779  28.2784  28.2786  28.2787  28.2787
    33.5023  33.5025

     the Fermi energy is    19.2769 ev

!    total energy              =  -16384.95843288 Ry
     Harris-Foulkes estimate   =  -16384.95842168 Ry
     estimated scf accuracy    <       0.00000048 Ry

     total all-electron energy =   -322945.812140 Ry

     The total energy is the sum of the following terms:

     one-electron contribution =   -2487.26320314 Ry
     hartree contribution      =    1661.12610208 Ry
     xc contribution           =    -986.50800847 Ry
     ewald contribution        =   -6404.92051140 Ry
     one-center paw contrib.   =   -8167.42594017 Ry
     smearing contrib. (-TS)   =       0.03312822 Ry

     convergence has been achieved in  11 iterations

     Forces acting on atoms (cartesian axes, Ry/au):

     atom    1 type  1   force =     0.00000000    0.00000000    0.00000000
     atom    2 type  1   force =     0.00009526    0.00009526    0.00000000
     atom    3 type  1   force =     0.00005502   -0.00000000   -0.00001278
     atom    4 type  1   force =     0.00000000    0.00005502   -0.00001278
     atom    5 type  1   force =     0.00000000    0.00000000    0.00000000
     atom    6 type  1   force =     0.00013251    0.00013251    0.00000000
     atom    7 type  1   force =     0.00005502    0.00000000    0.00001278
     atom    8 type  1   force =     0.00000000    0.00005502    0.00001278
     atom    9 type  1   force =     0.00000000    0.00000000    0.00000000
     atom   10 type  1   force =     0.00009526   -0.00009526    0.00000000
     atom   11 type  1   force =     0.00016857    0.00000000   -0.00001176
     atom   12 type  1   force =     0.00000000   -0.00005502   -0.00001278
     atom   13 type  1   force =     0.00000000    0.00000000    0.00000000
     atom   14 type  1   force =     0.00013251   -0.00013251    0.00000000
     atom   15 type  1   force =     0.00016857   -0.00000000    0.00001176
     atom   16 type  1   force =     0.00000000   -0.00005502    0.00001278
     atom   17 type  1   force =     0.00000000    0.00000000    0.00000000
     atom   18 type  1   force =    -0.00009526    0.00009526    0.00000000
     atom   19 type  1   force =    -0.00005502    0.00000000   -0.00001278
     atom   20 type  1   force =     0.00000000    0.00016857   -0.00001176
     atom   21 type  1   force =     0.00000000    0.00000000    0.00000000
     atom   22 type  1   force =    -0.00013251    0.00013251    0.00000000
     atom   23 type  1   force =    -0.00005502   -0.00000000    0.00001278
     atom   24 type  1   force =     0.00000000    0.00016857    0.00001176
     atom   25 type  1   force =     0.00000000    0.00000000    0.00000000
     atom   26 type  1   force =    -0.00009526   -0.00009526    0.00000000
     atom   27 type  1   force =    -0.00016857   -0.00000000   -0.00001176
     atom   28 type  1   force =     0.00000000   -0.00016857   -0.00001176
     atom   29 type  1   force =     0.00000000    0.00000000    0.00000000
     atom   30 type  1   force =    -0.00013251   -0.00013251    0.00000000
     atom   31 type  1   force =    -0.00016857    0.00000000    0.00001176
     atom   32 type  1   force =     0.00000000   -0.00016857    0.00001176

     Total force =     0.000683     Total SCF correction =     0.005436
     SCF correction compared to forces is large: reduce conv_thr to get better values

     Computing stress (Cartesian axis) and pressure

          total   stress  (Ry/bohr**3)                   (kbar)     P=    0.03
   0.00000163   0.00000000   0.00000000          0.24      0.00      0.00
   0.00000000   0.00000163   0.00000000          0.00      0.24      0.00
   0.00000000   0.00000000  -0.00000273          0.00      0.00     -0.40

     Writing output data file nJvdExSXlcCEqkSx.save/

     General routines

     Parallel routines

   This run was terminated on:  18:41:30  11Nov2020

   JOB DONE.