     Program PWSCF v.6.3 starts on 11Nov2020 at 20: 1:30

     R & G space division:  proc/nbgrp/npool/nimage =      20
     Reading input from wd/ec/ec_3_005.in
Warning: card &IONS ignored
Warning: card ION_DYNAMICS = 'BFGS', ignored
Warning: card / ignored
Warning: card &CELL ignored
Warning: card CELL_DYNAMICS = 'BFGS', ignored
Warning: card CELL_FACTOR = 2.0, ignored
Warning: card PRESS = 0.0, ignored
Warning: card / ignored

     Current dimensions of program PWSCF are:
     Max number of different atomic species (ntypx) = 10
     Max number of k-points (npk) =  40000
     Max angular momentum in pseudopotentials (lmaxx) =  3
               file Pd.pbe-spn-kjpaw_psl.1.0.0.UPF: wavefunction(s)  4S 5S 4D renormalized

     Subspace diagonalization in iterative solution of the eigenvalue problem:
     a serial algorithm will be used

     bravais-lattice index     =            0
     lattice parameter (alat)  =      14.8394  a.u.
     unit-cell volume          =    3278.6572 (a.u.)^3
     number of atoms/cell      =           32
     number of atomic types    =            1
     number of electrons       =       576.00
     number of Kohn-Sham states=          346
     kinetic-energy cutoff     =      71.0000  Ry
     charge density cutoff     =     430.0000  Ry
     convergence threshold     =      1.0E-06
     mixing beta               =       0.1000
     number of iterations used =           10  plain     mixing
     Exchange-correlation      = SLA PW PBX PBC ( 1  4  3  4 0 0)

     celldm(1)=  14.839420  celldm(2)=   0.000000  celldm(3)=   0.000000
     celldm(4)=   0.000000  celldm(5)=   0.000000  celldm(6)=   0.000000

     crystal axes: (cart. coord. in units of alat)
               a(1) = (   1.000000   0.000000   0.000000 )
               a(2) = (   0.000000   1.000000   0.000000 )
               a(3) = (   0.000000   0.000000   1.003333 )

     reciprocal axes: (cart. coord. in units 2 pi/alat)
               b(1) = (  1.000000  0.000000  0.000000 )
               b(2) = (  0.000000  1.000000  0.000000 )
               b(3) = (  0.000000  0.000000  0.996678 )

     PseudoPot. # 1 for Pd read from file:
     /rds/homes/b/bxp912/pp/Pd.pbe-spn-kjpaw_psl.1.0.0.UPF
     MD5 check sum: 790f2ebce206edfd9790dcb9844eca51
     Pseudo is Projector augmented-wave + core cor, Zval = 18.0
     Generated using "atomic" code by A. Dal Corso v.6.3
     Shape of augmentation charge: PSQ
     Using radial grid of 1235 points,  6 beta functions with:
                l(1) =   0
                l(2) =   0
                l(3) =   1
                l(4) =   1
                l(5) =   2
                l(6) =   2
     Q(r) pseudized with 0 coefficients

     atomic species   valence    mass     pseudopotential
        Pd            18.00   106.42000     Pd( 1.00)

     16 Sym. Ops., with inversion, found

   Cartesian axes

     site n.     atom                  positions (alat units)
         1           Pd  tau(   1) = (   0.0000000   0.0000000   0.0000000  )
         2           Pd  tau(   2) = (   0.2500045   0.2500045   0.0000000  )
         3           Pd  tau(   3) = (   0.2500045   0.0000000   0.2508373  )
         4           Pd  tau(   4) = (   0.0000000   0.2500045   0.2508373  )
         5           Pd  tau(   5) = (   0.0000000   0.0000000   0.5016657  )
         6           Pd  tau(   6) = (   0.2500116   0.2500116   0.5016657  )
         7           Pd  tau(   7) = (   0.2500045   0.0000000   0.7524950  )
         8           Pd  tau(   8) = (   0.0000000   0.2500045   0.7524950  )
         9           Pd  tau(   9) = (   0.0000000   0.4999998   0.0000000  )
        10           Pd  tau(  10) = (   0.2500045   0.7499952   0.0000000  )
        11           Pd  tau(  11) = (   0.2500116   0.4999998   0.2508443  )
        12           Pd  tau(  12) = (   0.0000000   0.7499952   0.2508373  )
        13           Pd  tau(  13) = (   0.0000000   0.4999998   0.5016657  )
        14           Pd  tau(  14) = (   0.2500116   0.7499881   0.5016657  )
        15           Pd  tau(  15) = (   0.2500116   0.4999998   0.7524881  )
        16           Pd  tau(  16) = (   0.0000000   0.7499952   0.7524950  )
        17           Pd  tau(  17) = (   0.4999998   0.0000000   0.0000000  )
        18           Pd  tau(  18) = (   0.7499952   0.2500045   0.0000000  )
        19           Pd  tau(  19) = (   0.7499952   0.0000000   0.2508373  )
        20           Pd  tau(  20) = (   0.4999998   0.2500116   0.2508443  )
        21           Pd  tau(  21) = (   0.4999998   0.0000000   0.5016657  )
        22           Pd  tau(  22) = (   0.7499881   0.2500116   0.5016657  )
        23           Pd  tau(  23) = (   0.7499952   0.0000000   0.7524950  )
        24           Pd  tau(  24) = (   0.4999998   0.2500116   0.7524881  )
        25           Pd  tau(  25) = (   0.4999998   0.4999998   0.0000000  )
        26           Pd  tau(  26) = (   0.7499952   0.7499952   0.0000000  )
        27           Pd  tau(  27) = (   0.7499881   0.4999998   0.2508443  )
        28           Pd  tau(  28) = (   0.4999998   0.7499881   0.2508443  )
        29           Pd  tau(  29) = (   0.4999998   0.4999998   0.5016657  )
        30           Pd  tau(  30) = (   0.7499881   0.7499881   0.5016657  )
        31           Pd  tau(  31) = (   0.7499881   0.4999998   0.7524881  )
        32           Pd  tau(  32) = (   0.4999998   0.7499881   0.7524881  )

     number of k points=    75  Marzari-Vanderbilt smearing, width (Ry)=  0.0400
                       cart. coord. in units 2pi/alat
        k(    1) = (   0.0555556   0.0555556   0.0553710), wk =   0.0219479
        k(    2) = (   0.0555556   0.0555556   0.1661130), wk =   0.0219479
        k(    3) = (   0.0555556   0.0555556   0.2768549), wk =   0.0219479
        k(    4) = (   0.0555556   0.0555556   0.3875969), wk =   0.0219479
        k(    5) = (   0.0555556   0.0555556  -0.4983389), wk =   0.0109739
        k(    6) = (   0.0555556   0.1666667   0.0553710), wk =   0.0438957
        k(    7) = (   0.0555556   0.1666667   0.1661130), wk =   0.0438957
        k(    8) = (   0.0555556   0.1666667   0.2768549), wk =   0.0438957
        k(    9) = (   0.0555556   0.1666667   0.3875969), wk =   0.0438957
        k(   10) = (   0.0555556   0.1666667  -0.4983389), wk =   0.0219479
        k(   11) = (   0.0555556   0.2777778   0.0553710), wk =   0.0438957
        k(   12) = (   0.0555556   0.2777778   0.1661130), wk =   0.0438957
        k(   13) = (   0.0555556   0.2777778   0.2768549), wk =   0.0438957
        k(   14) = (   0.0555556   0.2777778   0.3875969), wk =   0.0438957
        k(   15) = (   0.0555556   0.2777778  -0.4983389), wk =   0.0219479
        k(   16) = (   0.0555556   0.3888889   0.0553710), wk =   0.0438957
        k(   17) = (   0.0555556   0.3888889   0.1661130), wk =   0.0438957
        k(   18) = (   0.0555556   0.3888889   0.2768549), wk =   0.0438957
        k(   19) = (   0.0555556   0.3888889   0.3875969), wk =   0.0438957
        k(   20) = (   0.0555556   0.3888889  -0.4983389), wk =   0.0219479
        k(   21) = (   0.0555556  -0.5000000   0.0553710), wk =   0.0219479
        k(   22) = (   0.0555556  -0.5000000   0.1661130), wk =   0.0219479
        k(   23) = (   0.0555556  -0.5000000   0.2768549), wk =   0.0219479
        k(   24) = (   0.0555556  -0.5000000   0.3875969), wk =   0.0219479
        k(   25) = (   0.0555556  -0.5000000  -0.4983389), wk =   0.0109739
        k(   26) = (   0.1666667   0.1666667   0.0553710), wk =   0.0219479
        k(   27) = (   0.1666667   0.1666667   0.1661130), wk =   0.0219479
        k(   28) = (   0.1666667   0.1666667   0.2768549), wk =   0.0219479
        k(   29) = (   0.1666667   0.1666667   0.3875969), wk =   0.0219479
        k(   30) = (   0.1666667   0.1666667  -0.4983389), wk =   0.0109739
        k(   31) = (   0.1666667   0.2777778   0.0553710), wk =   0.0438957
        k(   32) = (   0.1666667   0.2777778   0.1661130), wk =   0.0438957
        k(   33) = (   0.1666667   0.2777778   0.2768549), wk =   0.0438957
        k(   34) = (   0.1666667   0.2777778   0.3875969), wk =   0.0438957
        k(   35) = (   0.1666667   0.2777778  -0.4983389), wk =   0.0219479
        k(   36) = (   0.1666667   0.3888889   0.0553710), wk =   0.0438957
        k(   37) = (   0.1666667   0.3888889   0.1661130), wk =   0.0438957
        k(   38) = (   0.1666667   0.3888889   0.2768549), wk =   0.0438957
        k(   39) = (   0.1666667   0.3888889   0.3875969), wk =   0.0438957
        k(   40) = (   0.1666667   0.3888889  -0.4983389), wk =   0.0219479
        k(   41) = (   0.1666667  -0.5000000   0.0553710), wk =   0.0219479
        k(   42) = (   0.1666667  -0.5000000   0.1661130), wk =   0.0219479
        k(   43) = (   0.1666667  -0.5000000   0.2768549), wk =   0.0219479
        k(   44) = (   0.1666667  -0.5000000   0.3875969), wk =   0.0219479
        k(   45) = (   0.1666667  -0.5000000  -0.4983389), wk =   0.0109739
        k(   46) = (   0.2777778   0.2777778   0.0553710), wk =   0.0219479
        k(   47) = (   0.2777778   0.2777778   0.1661130), wk =   0.0219479
        k(   48) = (   0.2777778   0.2777778   0.2768549), wk =   0.0219479
        k(   49) = (   0.2777778   0.2777778   0.3875969), wk =   0.0219479
        k(   50) = (   0.2777778   0.2777778  -0.4983389), wk =   0.0109739
        k(   51) = (   0.2777778   0.3888889   0.0553710), wk =   0.0438957
        k(   52) = (   0.2777778   0.3888889   0.1661130), wk =   0.0438957
        k(   53) = (   0.2777778   0.3888889   0.2768549), wk =   0.0438957
        k(   54) = (   0.2777778   0.3888889   0.3875969), wk =   0.0438957
        k(   55) = (   0.2777778   0.3888889  -0.4983389), wk =   0.0219479
        k(   56) = (   0.2777778  -0.5000000   0.0553710), wk =   0.0219479
        k(   57) = (   0.2777778  -0.5000000   0.1661130), wk =   0.0219479
        k(   58) = (   0.2777778  -0.5000000   0.2768549), wk =   0.0219479
        k(   59) = (   0.2777778  -0.5000000   0.3875969), wk =   0.0219479
        k(   60) = (   0.2777778  -0.5000000  -0.4983389), wk =   0.0109739
        k(   61) = (   0.3888889   0.3888889   0.0553710), wk =   0.0219479
        k(   62) = (   0.3888889   0.3888889   0.1661130), wk =   0.0219479
        k(   63) = (   0.3888889   0.3888889   0.2768549), wk =   0.0219479
        k(   64) = (   0.3888889   0.3888889   0.3875969), wk =   0.0219479
        k(   65) = (   0.3888889   0.3888889  -0.4983389), wk =   0.0109739
        k(   66) = (   0.3888889  -0.5000000   0.0553710), wk =   0.0219479
        k(   67) = (   0.3888889  -0.5000000   0.1661130), wk =   0.0219479
        k(   68) = (   0.3888889  -0.5000000   0.2768549), wk =   0.0219479
        k(   69) = (   0.3888889  -0.5000000   0.3875969), wk =   0.0219479
        k(   70) = (   0.3888889  -0.5000000  -0.4983389), wk =   0.0109739
        k(   71) = (  -0.5000000  -0.5000000   0.0553710), wk =   0.0054870
        k(   72) = (  -0.5000000  -0.5000000   0.1661130), wk =   0.0054870
        k(   73) = (  -0.5000000  -0.5000000   0.2768549), wk =   0.0054870
        k(   74) = (  -0.5000000  -0.5000000   0.3875969), wk =   0.0054870
        k(   75) = (  -0.5000000  -0.5000000  -0.4983389), wk =   0.0027435

     Check: negative/imaginary core charge=   -0.000002    0.000000

     Initial potential from superposition of free atoms

     starting charge  575.98776, renormalised to  576.00000
     Starting wfcs are  320 randomized atomic wfcs +   26 random wfcs
     Checking if some PAW data can be deallocated...

     Self-consistent Calculation

     iteration #  1     ecut=    71.00 Ry     beta= 0.10
     Davidson diagonalization with overlap
     ethr =  1.00E-02,  avg # of iterations =  3.1

     Threshold (ethr) on eigenvalues was too large:
     Diagonalizing with lowered threshold

     Davidson diagonalization with overlap
     ethr =  8.50E-05,  avg # of iterations =  3.1

     total energy              =  -16385.02223178 Ry
     Harris-Foulkes estimate   =  -16385.09119813 Ry
     estimated scf accuracy    <       0.48331257 Ry

[...]

     total energy              =  -16384.95906094 Ry
     Harris-Foulkes estimate   =  -16384.95905783 Ry
     estimated scf accuracy    <       0.00000409 Ry

     iteration # 11     ecut=    71.00 Ry     beta= 0.10
     Davidson diagonalization with overlap
     ethr =  7.11E-10,  avg # of iterations =  1.0

     End of self-consistent calculation

          k = 0.0556 0.0556 0.0554 ( 33087 PWs)   bands (ev):

   -64.9465 -64.9180 -64.9177 -64.9176 -64.9125 -64.9122 -64.9121 -64.9022
   -64.9021 -64.9021 -64.8999 -64.8995 -64.8993 -64.8992 -64.8991 -64.8991
   -64.8990 -64.8990 -64.8988 -64.8983 -64.8966 -64.8965 -64.8965 -64.8841
   -64.8841 -64.8838 -64.8836 -64.8836 -64.8835 -64.8834 -64.8832 -64.8826
   -30.8288 -30.8288 -30.8288 -30.8269 -30.8089 -30.8089 -30.8077 -30.7331
   -30.7308 -30.7308 -30.7288 -30.7288 -30.7266 -30.7265 -30.7264 -30.7263
   -30.7211 -30.7187 -30.7187 -30.7155 -30.7155 -30.7139 -30.7139 -30.7135
   -30.7134 -30.6973 -30.6973 -30.6953 -30.6953 -30.6951 -30.6950 -30.6556
   -30.6555 -30.6546 -30.6315 -30.6315 -30.6305 -30.6254 -30.6254 -30.6247
   -30.6163 -30.6163 -30.6160 -30.6160 -30.6152 -30.6152 -30.6014 -30.6014
   -30.6013 -30.6013 -30.6007 -30.6007 -30.6004 -30.6004 -30.6003 -30.5994
   -30.5990 -30.5982 -30.5977 -30.5974 -30.5966 -30.5365 -30.5365 -30.5347
   -30.5346 -30.5346 -30.5343 -30.5240 -30.5240 -30.5226 -30.5225 -30.5224
   -30.5223 -30.5200 -30.5200 -30.5186 -30.5159 -30.5154 -30.5153 -30.5149
   -30.5149 -30.5148 -30.5148 -30.5144 -30.5139 -30.5138 -30.5135 -30.5131
   -30.5129 -30.5121 -30.5079 -30.5078 -30.5066 -30.4624 -30.4601 -30.4600
    12.2328  13.9915  13.9916  13.9916  14.0581  14.0717  14.0718  14.0718
    14.2506  14.2620  14.2620  14.2653  14.2654  14.2654  14.4463  14.4573
    14.4574  14.9928  14.9929  15.0040  15.0041  15.0043  15.0044  15.1457
    15.1569  15.1570  15.3002  15.3009  15.3009  15.3297  15.3434  15.3434
    15.3820  15.3821  15.3834  15.3837  15.3838  15.3841  15.3841  15.3866
    15.3867  15.7213  15.7213  15.7282  15.7282  15.7305  15.7306  15.8261
    15.8371  15.8371  15.8473  15.8473  15.8586  15.8587  15.8601  15.8602
    15.9035  15.9163  15.9163  16.0745  16.0745  16.0824  16.0824  16.0855
    16.0856  16.1839  16.1840  16.1889  16.1890  16.1892  16.1893  16.1910
    16.1940  16.1940  16.2973  16.2974  16.2990  16.3475  16.3624  16.3624
    16.3682  16.3922  16.3922  16.3967  16.4010  16.4072  16.4300  16.4398
    17.2121  17.2289  17.2289  17.2815  17.2815  17.2887  17.3537  17.3538
    17.3547  17.3548  17.3604  17.3604  17.3605  17.3605  17.3659  17.3978
    17.4162  17.4163  17.5085  17.5086  17.5208  17.6298  17.6299  17.6332
    17.7516  17.7517  17.7628  17.8093  17.8094  17.8192  17.8838  17.8838
    17.8867  17.8868  17.8871  17.8872  17.9044  17.9045  17.9058  17.9362
    17.9566  17.9566  17.9572  17.9572  17.9657  17.9657  17.9676  18.0655
    18.0656  18.0742  18.4490  18.4490  18.4629  18.5509  18.5509  18.5628
    18.9335  18.9335  18.9427  19.0589  19.0589  19.0605  19.0797  19.0926
    19.0997  19.1097  19.1097  19.3333  19.3344  19.3344  19.3831  19.3831
    19.3839  19.3839  19.3910  19.3946  19.3947  19.4004  19.4005  20.0651
    20.3694  20.3695  20.3696  20.8778  20.8779  20.8967  21.3850  21.3850
    21.3861  21.3862  21.4081  21.4081  21.9125  21.9126  21.9384  22.4680
    22.5307  22.5307  26.2411  26.2412  26.2416  26.3981  27.3688  27.3689
    27.3976  27.3976  27.4266  27.4267  28.0603  28.0603  28.0874  28.0874
    28.1184  28.1185  29.4758  29.4759  29.4878  29.4879  29.5165  29.5165
    29.5950  29.6827  29.6828  30.5828  30.6420  30.6421  30.6522  30.6523
    30.6733  30.6734

[...]

          k = 0.3889-0.5000-0.4983 ( 33120 PWs)   bands (ev):

[...]

          k =-0.5000-0.5000 0.0554 ( 33084 PWs)   bands (ev):

[...]

          k =-0.5000-0.5000-0.4983 ( 33072 PWs)   bands (ev):

   -64.9236 -64.9234 -64.9234 -64.9233 -64.9228 -64.9227 -64.9226 -64.9225
   -64.8922 -64.8922 -64.8921 -64.8920 -64.8919 -64.8919 -64.8918 -64.8918
   -64.8915 -64.8914 -64.8913 -64.8913 -64.8912 -64.8912 -64.8911 -64.8911
   -64.8911 -64.8910 -64.8910 -64.8908 -64.8906 -64.8905 -64.8905 -64.8903
   -30.7687 -30.7686 -30.7686 -30.7686 -30.7682 -30.7682 -30.7681 -30.7681
   -30.7680 -30.7679 -30.7679 -30.7679 -30.7675 -30.7675 -30.7674 -30.7674
   -30.7669 -30.7668 -30.7667 -30.7666 -30.7666 -30.7665 -30.7665 -30.7664
   -30.6467 -30.6466 -30.6466 -30.6465 -30.6464 -30.6463 -30.6463 -30.6463
   -30.6101 -30.6100 -30.6100 -30.6100 -30.6099 -30.6099 -30.6099 -30.6098
   -30.6098 -30.6098 -30.6098 -30.6097 -30.6096 -30.6096 -30.6096 -30.6096
   -30.6096 -30.6095 -30.6095 -30.6094 -30.6094 -30.6093 -30.6093 -30.6093
   -30.5569 -30.5569 -30.5568 -30.5568 -30.5568 -30.5568 -30.5567 -30.5567
   -30.5565 -30.5565 -30.5564 -30.5564 -30.5564 -30.5563 -30.5563 -30.5563
   -30.5553 -30.5553 -30.5553 -30.5553 -30.5545 -30.5545 -30.5545 -30.5545
   -30.4871 -30.4870 -30.4870 -30.4869 -30.4869 -30.4868 -30.4868 -30.4867
   -30.4864 -30.4864 -30.4864 -30.4863 -30.4856 -30.4856 -30.4856 -30.4856
    13.8640  13.8643  13.8644  13.8647  13.8647  13.8651  13.8651  13.8654
    14.7122  14.7123  14.7123  14.7123  14.7129  14.7130  14.7130  14.7130
    14.7142  14.7143  14.7143  14.7144  14.7144  14.7144  14.7145  14.7145
    14.7146  14.7146  14.7147  14.7147  14.7148  14.7149  14.7149  14.7149
    15.4659  15.4661  15.4663  15.4663  15.4664  15.4665  15.4665  15.4665
    15.4665  15.4666  15.4666  15.4667  15.4669  15.4669  15.4670  15.4671
    15.4685  15.4687  15.4687  15.4688  15.4693  15.4695  15.4696  15.4696
    16.3936  16.3938  16.3938  16.3939  16.3939  16.3939  16.3939  16.3939
    16.6874  16.6875  16.6875  16.6876  16.6878  16.6879  16.6879  16.6880
    16.7139  16.7140  16.7140  16.7141  16.7142  16.7143  16.7143  16.7145
    16.8753  16.8754  16.8754  16.8755  16.8758  16.8759  16.8759  16.8761
    16.8903  16.8904  16.8904  16.8905  16.8905  16.8906  16.8906  16.8906
    16.8906  16.8907  16.8907  16.8907  16.8908  16.8908  16.8909  16.8909
    17.5960  17.5960  17.5962  17.5963  17.5963  17.5964  17.5965  17.5965
    17.5965  17.5966  17.5966  17.5967  17.5968  17.5968  17.5970  17.5971
    17.6092  17.6093  17.6093  17.6094  17.6095  17.6096  17.6096  17.6097
    18.0991  18.0992  18.0993  18.0994  18.0997  18.0998  18.0999  18.0999
    18.1080  18.1081  18.1081  18.1083  18.1084  18.1084  18.1085  18.1086
    19.1868  19.1869  19.1869  19.1869  19.1870  19.1871  19.1871  19.1871
    19.1914  19.1915  19.1915  19.1915  19.1917  19.1917  19.1917  19.1918
    19.1919  19.1919  19.1919  19.1919  19.1921  19.1921  19.1921  19.1922
    22.7399  22.7402  22.7402  22.7403  22.7404  22.7406  22.7406  22.7408
    22.7672  22.7674  22.7674  22.7675  22.7675  22.7677  22.7677  22.7678
    22.7679  22.7680  22.7680  22.7682  22.7682  22.7684  22.7684  22.7684
    28.1812  28.1812  28.1813  28.1813  28.1814  28.1814  28.1814  28.1815
    28.1818  28.1818  28.1818  28.1819  28.1819  28.1820  28.1820  28.1821
    28.2118  28.2121  28.2121  28.2121  28.2126  28.2129  28.2129  28.2129
    33.4868  33.4873

     the Fermi energy is    19.2119 ev

!    total energy              =  -16384.95907229 Ry
     Harris-Foulkes estimate   =  -16384.95906123 Ry
     estimated scf accuracy    <       0.00000049 Ry

     total all-electron energy =   -322945.812779 Ry

     The total energy is the sum of the following terms:

     one-electron contribution =   -2495.57311257 Ry
     hartree contribution      =    1664.04849329 Ry
     xc contribution           =    -986.44998300 Ry
     ewald contribution        =   -6399.59534177 Ry
     one-center paw contrib.   =   -8167.42312132 Ry
     smearing contrib. (-TS)   =       0.03399308 Ry

     convergence has been achieved in  11 iterations

     Forces acting on atoms (cartesian axes, Ry/au):

     atom    1 type  1   force =     0.00000000    0.00000000    0.00000000
     atom    2 type  1   force =     0.00009329    0.00009329    0.00000000
     atom    3 type  1   force =     0.00005382    0.00000000   -0.00001189
     atom    4 type  1   force =     0.00000000    0.00005382   -0.00001189
     atom    5 type  1   force =     0.00000000    0.00000000    0.00000000
     atom    6 type  1   force =     0.00012668    0.00012668    0.00000000
     atom    7 type  1   force =     0.00005382   -0.00000000    0.00001189
     atom    8 type  1   force =     0.00000000    0.00005382    0.00001189
     atom    9 type  1   force =     0.00000000    0.00000000    0.00000000
     atom   10 type  1   force =     0.00009329   -0.00009329    0.00000000
     atom   11 type  1   force =     0.00016042   -0.00000000   -0.00001261
     atom   12 type  1   force =     0.00000000   -0.00005382   -0.00001189
     atom   13 type  1   force =     0.00000000    0.00000000    0.00000000
     atom   14 type  1   force =     0.00012668   -0.00012668    0.00000000
     atom   15 type  1   force =     0.00016042    0.00000000    0.00001261
     atom   16 type  1   force =     0.00000000   -0.00005382    0.00001189
     atom   17 type  1   force =     0.00000000    0.00000000    0.00000000
     atom   18 type  1   force =    -0.00009329    0.00009329    0.00000000
     atom   19 type  1   force =    -0.00005382    0.00000000   -0.00001189
     atom   20 type  1   force =     0.00000000    0.00016042   -0.00001261
     atom   21 type  1   force =     0.00000000    0.00000000    0.00000000
     atom   22 type  1   force =    -0.00012668    0.00012668    0.00000000
     atom   23 type  1   force =    -0.00005382    0.00000000    0.00001189
     atom   24 type  1   force =     0.00000000    0.00016042    0.00001261
     atom   25 type  1   force =     0.00000000    0.00000000    0.00000000
     atom   26 type  1   force =    -0.00009329   -0.00009329    0.00000000
     atom   27 type  1   force =    -0.00016042    0.00000000   -0.00001261
     atom   28 type  1   force =     0.00000000   -0.00016042   -0.00001261
     atom   29 type  1   force =     0.00000000    0.00000000    0.00000000
     atom   30 type  1   force =    -0.00012668   -0.00012668    0.00000000
     atom   31 type  1   force =    -0.00016042   -0.00000000    0.00001261
     atom   32 type  1   force =     0.00000000   -0.00016042    0.00001261

     Total force =     0.000655     Total SCF correction =     0.005418
     SCF correction compared to forces is large: reduce conv_thr to get better values

     Computing stress (Cartesian axis) and pressure

          total   stress  (Ry/bohr**3)                   (kbar)     P=   -4.46
  -0.00002466   0.00000000   0.00000000         -3.63      0.00      0.00
   0.00000000  -0.00002466   0.00000000          0.00     -3.63      0.00
   0.00000000   0.00000000  -0.00004165          0.00      0.00     -6.13

     Writing output data file TvrzIpRGdQqdJcSk.save/

     General routines

     Parallel routines

   This run was terminated on:  20:41:27  11Nov2020

   JOB DONE.