     Program PWSCF v.6.3 starts on 11Nov2020 at 18:41:32

     R & G space division:  proc/nbgrp/npool/nimage =      20
     Reading input from wd/ec/ec_3_003.in
Warning: card &IONS ignored
Warning: card ION_DYNAMICS = 'BFGS', ignored
Warning: card / ignored
Warning: card &CELL ignored
Warning: card CELL_DYNAMICS = 'BFGS', ignored
Warning: card CELL_FACTOR = 2.0, ignored
Warning: card PRESS = 0.0, ignored
Warning: card / ignored

     Current dimensions of program PWSCF are:
     Max number of different atomic species (ntypx) = 10
     Max number of k-points (npk) =  40000
     Max angular momentum in pseudopotentials (lmaxx) =  3
               file Pd.pbe-spn-kjpaw_psl.1.0.0.UPF: wavefunction(s)  4S 5S 4D renormalized

     Subspace diagonalization in iterative solution of the eigenvalue problem:
     a serial algorithm will be used

     bravais-lattice index     =            0
     lattice parameter (alat)  =      14.8394  a.u.
     unit-cell volume          =    3273.2109 (a.u.)^3
     number of atoms/cell      =           32
     number of atomic types    =            1
     number of electrons       =       576.00
     number of Kohn-Sham states=          346
     kinetic-energy cutoff     =      71.0000  Ry
     charge density cutoff     =     430.0000  Ry
     convergence threshold     =      1.0E-06
     mixing beta               =       0.1000
     number of iterations used =           10  plain     mixing
     Exchange-correlation      = SLA PW PBX PBC ( 1  4  3  4 0 0)

     celldm(1)=  14.839420  celldm(2)=   0.000000  celldm(3)=   0.000000
     celldm(4)=   0.000000  celldm(5)=   0.000000  celldm(6)=   0.000000

     crystal axes: (cart. coord. in units of alat)
               a(1) = (   1.000000   0.000000   0.000000 )
               a(2) = (   0.000000   1.000000   0.000000 )
               a(3) = (   0.000000   0.000000   1.001667 )

     reciprocal axes: (cart. coord. in units 2 pi/alat)
               b(1) = (  1.000000  0.000000  0.000000 )
               b(2) = (  0.000000  1.000000  0.000000 )
               b(3) = (  0.000000  0.000000  0.998336 )

     PseudoPot. # 1 for Pd read from file:
     /rds/homes/b/bxp912/pp/Pd.pbe-spn-kjpaw_psl.1.0.0.UPF
     MD5 check sum: 790f2ebce206edfd9790dcb9844eca51
     Pseudo is Projector augmented-wave + core cor, Zval = 18.0
     Generated using "atomic" code by A. Dal Corso v.6.3
     Shape of augmentation charge: PSQ
     Using radial grid of 1235 points,  6 beta functions with:
                l(1) =   0
                l(2) =   0
                l(3) =   1
                l(4) =   1
                l(5) =   2
                l(6) =   2
     Q(r) pseudized with 0 coefficients

     atomic species   valence    mass     pseudopotential
        Pd            18.00   106.42000     Pd( 1.00)

     16 Sym. Ops., with inversion, found

   Cartesian axes

     site n.     atom                  positions (alat units)
         1           Pd  tau(   1) = (   0.0000000   0.0000000   0.0000000  )
         2           Pd  tau(   2) = (   0.2500045   0.2500045   0.0000000  )
         3           Pd  tau(   3) = (   0.2500045   0.0000000   0.2504206  )
         4           Pd  tau(   4) = (   0.0000000   0.2500045   0.2504206  )
         5           Pd  tau(   5) = (   0.0000000   0.0000000   0.5008323  )
         6           Pd  tau(   6) = (   0.2500116   0.2500116   0.5008323  )
         7           Pd  tau(   7) = (   0.2500045   0.0000000   0.7512450  )
         8           Pd  tau(   8) = (   0.0000000   0.2500045   0.7512450  )
         9           Pd  tau(   9) = (   0.0000000   0.4999998   0.0000000  )
        10           Pd  tau(  10) = (   0.2500045   0.7499952   0.0000000  )
        11           Pd  tau(  11) = (   0.2500116   0.4999998   0.2504276  )
        12           Pd  tau(  12) = (   0.0000000   0.7499952   0.2504206  )
        13           Pd  tau(  13) = (   0.0000000   0.4999998   0.5008323  )
        14           Pd  tau(  14) = (   0.2500116   0.7499881   0.5008323  )
        15           Pd  tau(  15) = (   0.2500116   0.4999998   0.7512381  )
        16           Pd  tau(  16) = (   0.0000000   0.7499952   0.7512450  )
        17           Pd  tau(  17) = (   0.4999998   0.0000000   0.0000000  )
        18           Pd  tau(  18) = (   0.7499952   0.2500045   0.0000000  )
        19           Pd  tau(  19) = (   0.7499952   0.0000000   0.2504206  )
        20           Pd  tau(  20) = (   0.4999998   0.2500116   0.2504276  )
        21           Pd  tau(  21) = (   0.4999998   0.0000000   0.5008323  )
        22           Pd  tau(  22) = (   0.7499881   0.2500116   0.5008323  )
        23           Pd  tau(  23) = (   0.7499952   0.0000000   0.7512450  )
        24           Pd  tau(  24) = (   0.4999998   0.2500116   0.7512381  )
        25           Pd  tau(  25) = (   0.4999998   0.4999998   0.0000000  )
        26           Pd  tau(  26) = (   0.7499952   0.7499952   0.0000000  )
        27           Pd  tau(  27) = (   0.7499881   0.4999998   0.2504276  )
        28           Pd  tau(  28) = (   0.4999998   0.7499881   0.2504276  )
        29           Pd  tau(  29) = (   0.4999998   0.4999998   0.5008323  )
        30           Pd  tau(  30) = (   0.7499881   0.7499881   0.5008323  )
        31           Pd  tau(  31) = (   0.7499881   0.4999998   0.7512381  )
        32           Pd  tau(  32) = (   0.4999998   0.7499881   0.7512381  )

     number of k points=    75  Marzari-Vanderbilt smearing, width (Ry)=  0.0400
                       cart. coord. in units 2pi/alat
        k(    1) = (   0.0555556   0.0555556   0.0554631), wk =   0.0219479
        k(    2) = (   0.0555556   0.0555556   0.1663894), wk =   0.0219479
        k(    3) = (   0.0555556   0.0555556   0.2773156), wk =   0.0219479
        k(    4) = (   0.0555556   0.0555556   0.3882418), wk =   0.0219479
        k(    5) = (   0.0555556   0.0555556  -0.4991681), wk =   0.0109739
        k(    6) = (   0.0555556   0.1666667   0.0554631), wk =   0.0438957
        k(    7) = (   0.0555556   0.1666667   0.1663894), wk =   0.0438957
        k(    8) = (   0.0555556   0.1666667   0.2773156), wk =   0.0438957
        k(    9) = (   0.0555556   0.1666667   0.3882418), wk =   0.0438957
        k(   10) = (   0.0555556   0.1666667  -0.4991681), wk =   0.0219479
        k(   11) = (   0.0555556   0.2777778   0.0554631), wk =   0.0438957
        k(   12) = (   0.0555556   0.2777778   0.1663894), wk =   0.0438957
        k(   13) = (   0.0555556   0.2777778   0.2773156), wk =   0.0438957
        k(   14) = (   0.0555556   0.2777778   0.3882418), wk =   0.0438957
        k(   15) = (   0.0555556   0.2777778  -0.4991681), wk =   0.0219479
        k(   16) = (   0.0555556   0.3888889   0.0554631), wk =   0.0438957
        k(   17) = (   0.0555556   0.3888889   0.1663894), wk =   0.0438957
        k(   18) = (   0.0555556   0.3888889   0.2773156), wk =   0.0438957
        k(   19) = (   0.0555556   0.3888889   0.3882418), wk =   0.0438957
        k(   20) = (   0.0555556   0.3888889  -0.4991681), wk =   0.0219479
        k(   21) = (   0.0555556  -0.5000000   0.0554631), wk =   0.0219479
        k(   22) = (   0.0555556  -0.5000000   0.1663894), wk =   0.0219479
        k(   23) = (   0.0555556  -0.5000000   0.2773156), wk =   0.0219479
        k(   24) = (   0.0555556  -0.5000000   0.3882418), wk =   0.0219479
        k(   25) = (   0.0555556  -0.5000000  -0.4991681), wk =   0.0109739
        k(   26) = (   0.1666667   0.1666667   0.0554631), wk =   0.0219479
        k(   27) = (   0.1666667   0.1666667   0.1663894), wk =   0.0219479
        k(   28) = (   0.1666667   0.1666667   0.2773156), wk =   0.0219479
        k(   29) = (   0.1666667   0.1666667   0.3882418), wk =   0.0219479
        k(   30) = (   0.1666667   0.1666667  -0.4991681), wk =   0.0109739
        k(   31) = (   0.1666667   0.2777778   0.0554631), wk =   0.0438957
        k(   32) = (   0.1666667   0.2777778   0.1663894), wk =   0.0438957
        k(   33) = (   0.1666667   0.2777778   0.2773156), wk =   0.0438957
        k(   34) = (   0.1666667   0.2777778   0.3882418), wk =   0.0438957
        k(   35) = (   0.1666667   0.2777778  -0.4991681), wk =   0.0219479
        k(   36) = (   0.1666667   0.3888889   0.0554631), wk =   0.0438957
        k(   37) = (   0.1666667   0.3888889   0.1663894), wk =   0.0438957
        k(   38) = (   0.1666667   0.3888889   0.2773156), wk =   0.0438957
        k(   39) = (   0.1666667   0.3888889   0.3882418), wk =   0.0438957
        k(   40) = (   0.1666667   0.3888889  -0.4991681), wk =   0.0219479
        k(   41) = (   0.1666667  -0.5000000   0.0554631), wk =   0.0219479
        k(   42) = (   0.1666667  -0.5000000   0.1663894), wk =   0.0219479
        k(   43) = (   0.1666667  -0.5000000   0.2773156), wk =   0.0219479
        k(   44) = (   0.1666667  -0.5000000   0.3882418), wk =   0.0219479
        k(   45) = (   0.1666667  -0.5000000  -0.4991681), wk =   0.0109739
        k(   46) = (   0.2777778   0.2777778   0.0554631), wk =   0.0219479
        k(   47) = (   0.2777778   0.2777778   0.1663894), wk =   0.0219479
        k(   48) = (   0.2777778   0.2777778   0.2773156), wk =   0.0219479
        k(   49) = (   0.2777778   0.2777778   0.3882418), wk =   0.0219479
        k(   50) = (   0.2777778   0.2777778  -0.4991681), wk =   0.0109739
        k(   51) = (   0.2777778   0.3888889   0.0554631), wk =   0.0438957
        k(   52) = (   0.2777778   0.3888889   0.1663894), wk =   0.0438957
        k(   53) = (   0.2777778   0.3888889   0.2773156), wk =   0.0438957
        k(   54) = (   0.2777778   0.3888889   0.3882418), wk =   0.0438957
        k(   55) = (   0.2777778   0.3888889  -0.4991681), wk =   0.0219479
        k(   56) = (   0.2777778  -0.5000000   0.0554631), wk =   0.0219479
        k(   57) = (   0.2777778  -0.5000000   0.1663894), wk =   0.0219479
        k(   58) = (   0.2777778  -0.5000000   0.2773156), wk =   0.0219479
        k(   59) = (   0.2777778  -0.5000000   0.3882418), wk =   0.0219479
        k(   60) = (   0.2777778  -0.5000000  -0.4991681), wk =   0.0109739
        k(   61) = (   0.3888889   0.3888889   0.0554631), wk =   0.0219479
        k(   62) = (   0.3888889   0.3888889   0.1663894), wk =   0.0219479
        k(   63) = (   0.3888889   0.3888889   0.2773156), wk =   0.0219479
        k(   64) = (   0.3888889   0.3888889   0.3882418), wk =   0.0219479
        k(   65) = (   0.3888889   0.3888889  -0.4991681), wk =   0.0109739
        k(   66) = (   0.3888889  -0.5000000   0.0554631), wk =   0.0219479
        k(   67) = (   0.3888889  -0.5000000   0.1663894), wk =   0.0219479
        k(   68) = (   0.3888889  -0.5000000   0.2773156), wk =   0.0219479
        k(   69) = (   0.3888889  -0.5000000   0.3882418), wk =   0.0219479
        k(   70) = (   0.3888889  -0.5000000  -0.4991681), wk =   0.0109739
        k(   71) = (  -0.5000000  -0.5000000   0.0554631), wk =   0.0054870
        k(   72) = (  -0.5000000  -0.5000000   0.1663894), wk =   0.0054870
        k(   73) = (  -0.5000000  -0.5000000   0.2773156), wk =   0.0054870
        k(   74) = (  -0.5000000  -0.5000000   0.3882418), wk =   0.0054870
        k(   75) = (  -0.5000000  -0.5000000  -0.4991681), wk =   0.0027435

     Check: negative/imaginary core charge=   -0.000002    0.000000

     Initial potential from superposition of free atoms

     starting charge  575.98776, renormalised to  576.00000
     Starting wfcs are  320 randomized atomic wfcs +   26 random wfcs
     Checking if some PAW data can be deallocated...

     Self-consistent Calculation

     iteration #  1     ecut=    71.00 Ry     beta= 0.10
     Davidson diagonalization with overlap
     ethr =  1.00E-02,  avg # of iterations =  3.1

     Threshold (ethr) on eigenvalues was too large:
     Diagonalizing with lowered threshold

     Davidson diagonalization with overlap
     ethr =  8.40E-05,  avg # of iterations =  3.0

     total energy              =  -16385.02126436 Ry
     Harris-Foulkes estimate   =  -16385.08941374 Ry
     estimated scf accuracy    <       0.47803322 Ry

[...]

     total energy              =  -16384.95867578 Ry
     Harris-Foulkes estimate   =  -16384.95867267 Ry
     estimated scf accuracy    <       0.00000380 Ry

     iteration # 11     ecut=    71.00 Ry     beta= 0.10
     Davidson diagonalization with overlap
     ethr =  6.60E-10,  avg # of iterations =  1.0

     End of self-consistent calculation

          k = 0.0556 0.0556 0.0555 ( 33044 PWs)   bands (ev):

   -64.9083 -64.8795 -64.8794 -64.8793 -64.8740 -64.8738 -64.8737 -64.8637
   -64.8636 -64.8635 -64.8613 -64.8610 -64.8607 -64.8607 -64.8605 -64.8605
   -64.8605 -64.8604 -64.8603 -64.8598 -64.8580 -64.8580 -64.8579 -64.8456
   -64.8452 -64.8450 -64.8449 -64.8449 -64.8448 -64.8447 -64.8446 -64.8440
   -30.7916 -30.7916 -30.7916 -30.7898 -30.7715 -30.7715 -30.7709 -30.6946
   -30.6935 -30.6935 -30.6903 -30.6903 -30.6892 -30.6892 -30.6891 -30.6891
   -30.6826 -30.6814 -30.6814 -30.6771 -30.6771 -30.6763 -30.6763 -30.6761
   -30.6760 -30.6587 -30.6587 -30.6577 -30.6577 -30.6576 -30.6575 -30.6173
   -30.6173 -30.6168 -30.5930 -30.5929 -30.5925 -30.5869 -30.5869 -30.5865
   -30.5777 -30.5777 -30.5775 -30.5775 -30.5771 -30.5771 -30.5627 -30.5627
   -30.5622 -30.5620 -30.5619 -30.5619 -30.5618 -30.5617 -30.5617 -30.5612
   -30.5610 -30.5604 -30.5595 -30.5593 -30.5588 -30.4970 -30.4969 -30.4961
   -30.4960 -30.4960 -30.4958 -30.4845 -30.4845 -30.4838 -30.4838 -30.4837
   -30.4836 -30.4807 -30.4807 -30.4801 -30.4764 -30.4762 -30.4760 -30.4757
   -30.4756 -30.4756 -30.4756 -30.4755 -30.4751 -30.4749 -30.4745 -30.4744
   -30.4743 -30.4735 -30.4686 -30.4686 -30.4679 -30.4229 -30.4206 -30.4205
    12.2635  14.0212  14.0212  14.0213  14.0889  14.1026  14.1026  14.1026
    14.2872  14.2928  14.2929  14.2957  14.2958  14.2958  14.4825  14.4880
    14.4881  15.0285  15.0286  15.0341  15.0342  15.0343  15.0344  15.1819
    15.1876  15.1876  15.3344  15.3347  15.3347  15.3673  15.3741  15.3741
    15.4166  15.4166  15.4174  15.4175  15.4176  15.4176  15.4182  15.4198
    15.4199  15.7581  15.7581  15.7615  15.7615  15.7627  15.7628  15.8641
    15.8696  15.8697  15.8858  15.8858  15.8914  15.8915  15.8922  15.8922
    15.9423  15.9487  15.9487  16.1127  16.1127  16.1166  16.1166  16.1182
    16.1183  16.2201  16.2202  16.2237  16.2248  16.2249  16.2249  16.2250
    16.2274  16.2274  16.3328  16.3329  16.3337  16.3902  16.3994  16.3994
    16.4110  16.4253  16.4267  16.4267  16.4359  16.4439  16.4639  16.4710
    17.2558  17.2641  17.2642  17.3207  17.3207  17.3244  17.3932  17.3932
    17.3936  17.3937  17.3966  17.3966  17.3996  17.3997  17.4023  17.4424
    17.4516  17.4517  17.5494  17.5495  17.5556  17.6693  17.6694  17.6710
    17.7929  17.7930  17.7986  17.8506  17.8507  17.8555  17.9245  17.9245
    17.9259  17.9260  17.9262  17.9262  17.9443  17.9443  17.9450  17.9843
    17.9983  17.9983  17.9985  17.9986  18.0000  18.0028  18.0028  18.1074
    18.1074  18.1116  18.4929  18.4929  18.4998  18.5947  18.5947  18.6007
    18.9775  18.9775  18.9821  19.1024  19.1024  19.1032  19.1263  19.1327
    19.1464  19.1513  19.1513  19.3783  19.3793  19.3793  19.4304  19.4304
    19.4307  19.4308  19.4358  19.4370  19.4372  19.4390  19.4392  20.1048
    20.4101  20.4101  20.4102  20.9273  20.9273  20.9368  21.4360  21.4361
    21.4366  21.4366  21.4476  21.4476  21.9645  21.9645  21.9775  22.5323
    22.5637  22.5637  26.2973  26.2974  26.2976  26.4542  27.4355  27.4355
    27.4499  27.4499  27.4644  27.4645  28.1275  28.1275  28.1411  28.1411
    28.1566  28.1567  29.5424  29.5424  29.5484  29.5484  29.5624  29.5624
    29.6842  29.7282  29.7282  30.6571  30.7040  30.7040  30.7091  30.7091
    30.7200  30.7201

[...]

          k = 0.3889-0.5000-0.4992 ( 33072 PWs)   bands (ev):

[...]

          k =-0.5000-0.5000 0.0555 ( 33032 PWs)   bands (ev):

[...]

          k =-0.5000-0.5000-0.4992 ( 33016 PWs)   bands (ev):

   -64.8852 -64.8851 -64.8850 -64.8849 -64.8844 -64.8843 -64.8842 -64.8841
   -64.8536 -64.8535 -64.8535 -64.8534 -64.8533 -64.8532 -64.8531 -64.8531
   -64.8529 -64.8528 -64.8527 -64.8526 -64.8526 -64.8526 -64.8525 -64.8524
   -64.8524 -64.8524 -64.8523 -64.8522 -64.8521 -64.8519 -64.8519 -64.8517
   -30.7310 -30.7310 -30.7309 -30.7309 -30.7305 -30.7305 -30.7305 -30.7304
   -30.7303 -30.7303 -30.7302 -30.7302 -30.7299 -30.7299 -30.7298 -30.7298
   -30.7297 -30.7297 -30.7297 -30.7296 -30.7296 -30.7295 -30.7295 -30.7294
   -30.6084 -30.6084 -30.6084 -30.6083 -30.6082 -30.6081 -30.6081 -30.6080
   -30.5716 -30.5715 -30.5715 -30.5715 -30.5715 -30.5715 -30.5714 -30.5714
   -30.5713 -30.5713 -30.5712 -30.5712 -30.5712 -30.5712 -30.5712 -30.5712
   -30.5711 -30.5711 -30.5711 -30.5710 -30.5710 -30.5710 -30.5709 -30.5709
   -30.5178 -30.5178 -30.5178 -30.5177 -30.5177 -30.5177 -30.5176 -30.5176
   -30.5175 -30.5174 -30.5174 -30.5173 -30.5173 -30.5173 -30.5173 -30.5172
   -30.5170 -30.5170 -30.5170 -30.5170 -30.5163 -30.5163 -30.5162 -30.5162
   -30.4477 -30.4476 -30.4476 -30.4475 -30.4475 -30.4475 -30.4474 -30.4474
   -30.4474 -30.4473 -30.4473 -30.4472 -30.4466 -30.4466 -30.4466 -30.4466
    13.8962  13.8966  13.8966  13.8969  13.8970  13.8973  13.8973  13.8976
    14.7446  14.7446  14.7446  14.7447  14.7453  14.7453  14.7453  14.7454
    14.7456  14.7456  14.7457  14.7458  14.7458  14.7458  14.7459  14.7459
    14.7460  14.7460  14.7460  14.7460  14.7462  14.7462  14.7462  14.7462
    15.4996  15.4998  15.4999  15.4999  15.5001  15.5002  15.5002  15.5002
    15.5002  15.5002  15.5002  15.5004  15.5006  15.5006  15.5006  15.5008
    15.5009  15.5011  15.5011  15.5012  15.5017  15.5019  15.5020  15.5020
    16.4295  16.4297  16.4297  16.4297  16.4297  16.4298  16.4298  16.4298
    16.7307  16.7308  16.7308  16.7309  16.7310  16.7311  16.7311  16.7313
    16.7440  16.7440  16.7441  16.7442  16.7443  16.7444  16.7444  16.7445
    16.9173  16.9175  16.9175  16.9175  16.9178  16.9180  16.9180  16.9181
    16.9249  16.9250  16.9250  16.9251  16.9251  16.9252  16.9252  16.9252
    16.9252  16.9252  16.9253  16.9253  16.9253  16.9254  16.9255  16.9255
    17.6372  17.6372  17.6373  17.6374  17.6375  17.6376  17.6376  17.6377
    17.6377  17.6377  17.6378  17.6378  17.6380  17.6380  17.6381  17.6382
    17.6439  17.6440  17.6440  17.6441  17.6442  17.6443  17.6443  17.6444
    18.1418  18.1419  18.1420  18.1420  18.1424  18.1424  18.1425  18.1426
    18.1463  18.1464  18.1464  18.1465  18.1466  18.1467  18.1468  18.1469
    19.2320  19.2321  19.2321  19.2322  19.2322  19.2323  19.2323  19.2324
    19.2343  19.2343  19.2343  19.2344  19.2346  19.2346  19.2346  19.2347
    19.2347  19.2348  19.2348  19.2348  19.2350  19.2350  19.2350  19.2351
    22.7966  22.7970  22.7970  22.7970  22.7972  22.7973  22.7974  22.7975
    22.8103  22.8104  22.8104  22.8105  22.8106  22.8107  22.8108  22.8108
    22.8109  22.8110  22.8111  22.8112  22.8112  22.8114  22.8114  22.8114
    28.2403  28.2403  28.2405  28.2405  28.2405  28.2406  28.2406  28.2407
    28.2410  28.2410  28.2410  28.2410  28.2411  28.2412  28.2412  28.2412
    28.2556  28.2559  28.2559  28.2559  28.2564  28.2567  28.2567  28.2567
    33.4735  33.4738

     the Fermi energy is    19.2552 ev

!    total energy              =  -16384.95868724 Ry
     Harris-Foulkes estimate   =  -16384.95867605 Ry
     estimated scf accuracy    <       0.00000049 Ry

     total all-electron energy =   -322945.812394 Ry

     The total energy is the sum of the following terms:

     one-electron contribution =   -2490.03559878 Ry
     hartree contribution      =    1662.10072276 Ry
     xc contribution           =    -986.48860262 Ry
     ewald contribution        =   -6403.14362707 Ry
     one-center paw contrib.   =   -8167.42499328 Ry
     smearing contrib. (-TS)   =       0.03341175 Ry

     convergence has been achieved in  11 iterations

     Forces acting on atoms (cartesian axes, Ry/au):

     atom    1 type  1   force =     0.00000000    0.00000000    0.00000000
     atom    2 type  1   force =     0.00009463    0.00009463    0.00000000
     atom    3 type  1   force =     0.00005492   -0.00000000   -0.00001262
     atom    4 type  1   force =     0.00000000    0.00005492   -0.00001262
     atom    5 type  1   force =     0.00000000    0.00000000    0.00000000
     atom    6 type  1   force =     0.00013076    0.00013076    0.00000000
     atom    7 type  1   force =     0.00005492    0.00000000    0.00001262
     atom    8 type  1   force =     0.00000000    0.00005492    0.00001262
     atom    9 type  1   force =     0.00000000    0.00000000    0.00000000
     atom   10 type  1   force =     0.00009463   -0.00009463    0.00000000
     atom   11 type  1   force =     0.00016558    0.00000000   -0.00001201
     atom   12 type  1   force =     0.00000000   -0.00005492   -0.00001262
     atom   13 type  1   force =     0.00000000    0.00000000    0.00000000
     atom   14 type  1   force =     0.00013076   -0.00013076    0.00000000
     atom   15 type  1   force =     0.00016558   -0.00000000    0.00001201
     atom   16 type  1   force =     0.00000000   -0.00005492    0.00001262
     atom   17 type  1   force =     0.00000000    0.00000000    0.00000000
     atom   18 type  1   force =    -0.00009463    0.00009463    0.00000000
     atom   19 type  1   force =    -0.00005492    0.00000000   -0.00001262
     atom   20 type  1   force =     0.00000000    0.00016558   -0.00001201
     atom   21 type  1   force =     0.00000000    0.00000000    0.00000000
     atom   22 type  1   force =    -0.00013076    0.00013076    0.00000000
     atom   23 type  1   force =    -0.00005492   -0.00000000    0.00001262
     atom   24 type  1   force =     0.00000000    0.00016558    0.00001201
     atom   25 type  1   force =     0.00000000    0.00000000    0.00000000
     atom   26 type  1   force =    -0.00009463   -0.00009463    0.00000000
     atom   27 type  1   force =    -0.00016558   -0.00000000   -0.00001201
     atom   28 type  1   force =     0.00000000   -0.00016558   -0.00001201
     atom   29 type  1   force =     0.00000000    0.00000000    0.00000000
     atom   30 type  1   force =    -0.00013076   -0.00013076    0.00000000
     atom   31 type  1   force =    -0.00016558    0.00000000    0.00001201
     atom   32 type  1   force =     0.00000000   -0.00016558    0.00001201

     Total force =     0.000674     Total SCF correction =     0.005432
     SCF correction compared to forces is large: reduce conv_thr to get better values

     Computing stress (Cartesian axis) and pressure

          total   stress  (Ry/bohr**3)                   (kbar)     P=   -1.48
  -0.00000718   0.00000000   0.00000000         -1.06      0.00      0.00
   0.00000000  -0.00000718   0.00000000          0.00     -1.06      0.00
   0.00000000   0.00000000  -0.00001574          0.00      0.00     -2.32

     Writing output data file niKeQCwhCSpeaIqD.save/

     General routines

     Parallel routines

   This run was terminated on:  19:21:35  11Nov2020

   JOB DONE.