     Program PWSCF v.6.3 starts on 11Nov2020 at 21:21:20

     R & G space division:  proc/nbgrp/npool/nimage =      20
     Reading input from wd/ec/ec_3_007.in
Warning: card &IONS ignored
Warning: card ION_DYNAMICS = 'BFGS', ignored
Warning: card / ignored
Warning: card &CELL ignored
Warning: card CELL_DYNAMICS = 'BFGS', ignored
Warning: card CELL_FACTOR = 2.0, ignored
Warning: card PRESS = 0.0, ignored
Warning: card / ignored

     Current dimensions of program PWSCF are:
     Max number of different atomic species (ntypx) = 10
     Max number of k-points (npk) =  40000
     Max angular momentum in pseudopotentials (lmaxx) =  3
               file Pd.pbe-spn-kjpaw_psl.1.0.0.UPF: wavefunction(s)  4S 5S 4D renormalized

     Subspace diagonalization in iterative solution of the eigenvalue problem:
     a serial algorithm will be used

     bravais-lattice index     =            0
     lattice parameter (alat)  =      14.8394  a.u.
     unit-cell volume          =    3284.1034 (a.u.)^3
     number of atoms/cell      =           32
     number of atomic types    =            1
     number of electrons       =       576.00
     number of Kohn-Sham states=          346
     kinetic-energy cutoff     =      71.0000  Ry
     charge density cutoff     =     430.0000  Ry
     convergence threshold     =      1.0E-06
     mixing beta               =       0.1000
     number of iterations used =           10  plain     mixing
     Exchange-correlation      = SLA PW PBX PBC ( 1  4  3  4 0 0)

     celldm(1)=  14.839420  celldm(2)=   0.000000  celldm(3)=   0.000000
     celldm(4)=   0.000000  celldm(5)=   0.000000  celldm(6)=   0.000000

     crystal axes: (cart. coord. in units of alat)
               a(1) = (   1.000000   0.000000   0.000000 )
               a(2) = (   0.000000   1.000000   0.000000 )
               a(3) = (   0.000000   0.000000   1.005000 )

     reciprocal axes: (cart. coord. in units 2 pi/alat)
               b(1) = (  1.000000  0.000000  0.000000 )
               b(2) = (  0.000000  1.000000  0.000000 )
               b(3) = (  0.000000  0.000000  0.995025 )

     PseudoPot. # 1 for Pd read from file:
     /rds/homes/b/bxp912/pp/Pd.pbe-spn-kjpaw_psl.1.0.0.UPF
     MD5 check sum: 790f2ebce206edfd9790dcb9844eca51
     Pseudo is Projector augmented-wave + core cor, Zval = 18.0
     Generated using "atomic" code by A. Dal Corso v.6.3
     Shape of augmentation charge: PSQ
     Using radial grid of 1235 points,  6 beta functions with:
                l(1) =   0
                l(2) =   0
                l(3) =   1
                l(4) =   1
                l(5) =   2
                l(6) =   2
     Q(r) pseudized with 0 coefficients

     atomic species   valence    mass     pseudopotential
        Pd            18.00   106.42000     Pd( 1.00)

     16 Sym. Ops., with inversion, found

   Cartesian axes

     site n.     atom                  positions (alat units)
         1           Pd  tau(   1) = (   0.0000000   0.0000000   0.0000000  )
         2           Pd  tau(   2) = (   0.2500045   0.2500045   0.0000000  )
         3           Pd  tau(   3) = (   0.2500045   0.0000000   0.2512540  )
         4           Pd  tau(   4) = (   0.0000000   0.2500045   0.2512540  )
         5           Pd  tau(   5) = (   0.0000000   0.0000000   0.5024990  )
         6           Pd  tau(   6) = (   0.2500116   0.2500116   0.5024990  )
         7           Pd  tau(   7) = (   0.2500045   0.0000000   0.7537450  )
         8           Pd  tau(   8) = (   0.0000000   0.2500045   0.7537450  )
         9           Pd  tau(   9) = (   0.0000000   0.4999998   0.0000000  )
        10           Pd  tau(  10) = (   0.2500045   0.7499952   0.0000000  )
        11           Pd  tau(  11) = (   0.2500116   0.4999998   0.2512610  )
        12           Pd  tau(  12) = (   0.0000000   0.7499952   0.2512540  )
        13           Pd  tau(  13) = (   0.0000000   0.4999998   0.5024990  )
        14           Pd  tau(  14) = (   0.2500116   0.7499881   0.5024990  )
        15           Pd  tau(  15) = (   0.2500116   0.4999998   0.7537380  )
        16           Pd  tau(  16) = (   0.0000000   0.7499952   0.7537450  )
        17           Pd  tau(  17) = (   0.4999998   0.0000000   0.0000000  )
        18           Pd  tau(  18) = (   0.7499952   0.2500045   0.0000000  )
        19           Pd  tau(  19) = (   0.7499952   0.0000000   0.2512540  )
        20           Pd  tau(  20) = (   0.4999998   0.2500116   0.2512610  )
        21           Pd  tau(  21) = (   0.4999998   0.0000000   0.5024990  )
        22           Pd  tau(  22) = (   0.7499881   0.2500116   0.5024990  )
        23           Pd  tau(  23) = (   0.7499952   0.0000000   0.7537450  )
        24           Pd  tau(  24) = (   0.4999998   0.2500116   0.7537380  )
        25           Pd  tau(  25) = (   0.4999998   0.4999998   0.0000000  )
        26           Pd  tau(  26) = (   0.7499952   0.7499952   0.0000000  )
        27           Pd  tau(  27) = (   0.7499881   0.4999998   0.2512610  )
        28           Pd  tau(  28) = (   0.4999998   0.7499881   0.2512610  )
        29           Pd  tau(  29) = (   0.4999998   0.4999998   0.5024990  )
        30           Pd  tau(  30) = (   0.7499881   0.7499881   0.5024990  )
        31           Pd  tau(  31) = (   0.7499881   0.4999998   0.7537380  )
        32           Pd  tau(  32) = (   0.4999998   0.7499881   0.7537380  )

     number of k points=    75  Marzari-Vanderbilt smearing, width (Ry)=  0.0400
                       cart. coord. in units 2pi/alat
        k(    1) = (   0.0555556   0.0555556   0.0552792), wk =   0.0219479
        k(    2) = (   0.0555556   0.0555556   0.1658375), wk =   0.0219479
        k(    3) = (   0.0555556   0.0555556   0.2763958), wk =   0.0219479
        k(    4) = (   0.0555556   0.0555556   0.3869541), wk =   0.0219479
        k(    5) = (   0.0555556   0.0555556  -0.4975124), wk =   0.0109739
        k(    6) = (   0.0555556   0.1666667   0.0552792), wk =   0.0438957
        k(    7) = (   0.0555556   0.1666667   0.1658375), wk =   0.0438957
        k(    8) = (   0.0555556   0.1666667   0.2763958), wk =   0.0438957
        k(    9) = (   0.0555556   0.1666667   0.3869541), wk =   0.0438957
        k(   10) = (   0.0555556   0.1666667  -0.4975124), wk =   0.0219479
        k(   11) = (   0.0555556   0.2777778   0.0552792), wk =   0.0438957
        k(   12) = (   0.0555556   0.2777778   0.1658375), wk =   0.0438957
        k(   13) = (   0.0555556   0.2777778   0.2763958), wk =   0.0438957
        k(   14) = (   0.0555556   0.2777778   0.3869541), wk =   0.0438957
        k(   15) = (   0.0555556   0.2777778  -0.4975124), wk =   0.0219479
        k(   16) = (   0.0555556   0.3888889   0.0552792), wk =   0.0438957
        k(   17) = (   0.0555556   0.3888889   0.1658375), wk =   0.0438957
        k(   18) = (   0.0555556   0.3888889   0.2763958), wk =   0.0438957
        k(   19) = (   0.0555556   0.3888889   0.3869541), wk =   0.0438957
        k(   20) = (   0.0555556   0.3888889  -0.4975124), wk =   0.0219479
        k(   21) = (   0.0555556  -0.5000000   0.0552792), wk =   0.0219479
        k(   22) = (   0.0555556  -0.5000000   0.1658375), wk =   0.0219479
        k(   23) = (   0.0555556  -0.5000000   0.2763958), wk =   0.0219479
        k(   24) = (   0.0555556  -0.5000000   0.3869541), wk =   0.0219479
        k(   25) = (   0.0555556  -0.5000000  -0.4975124), wk =   0.0109739
        k(   26) = (   0.1666667   0.1666667   0.0552792), wk =   0.0219479
        k(   27) = (   0.1666667   0.1666667   0.1658375), wk =   0.0219479
        k(   28) = (   0.1666667   0.1666667   0.2763958), wk =   0.0219479
        k(   29) = (   0.1666667   0.1666667   0.3869541), wk =   0.0219479
        k(   30) = (   0.1666667   0.1666667  -0.4975124), wk =   0.0109739
        k(   31) = (   0.1666667   0.2777778   0.0552792), wk =   0.0438957
        k(   32) = (   0.1666667   0.2777778   0.1658375), wk =   0.0438957
        k(   33) = (   0.1666667   0.2777778   0.2763958), wk =   0.0438957
        k(   34) = (   0.1666667   0.2777778   0.3869541), wk =   0.0438957
        k(   35) = (   0.1666667   0.2777778  -0.4975124), wk =   0.0219479
        k(   36) = (   0.1666667   0.3888889   0.0552792), wk =   0.0438957
        k(   37) = (   0.1666667   0.3888889   0.1658375), wk =   0.0438957
        k(   38) = (   0.1666667   0.3888889   0.2763958), wk =   0.0438957
        k(   39) = (   0.1666667   0.3888889   0.3869541), wk =   0.0438957
        k(   40) = (   0.1666667   0.3888889  -0.4975124), wk =   0.0219479
        k(   41) = (   0.1666667  -0.5000000   0.0552792), wk =   0.0219479
        k(   42) = (   0.1666667  -0.5000000   0.1658375), wk =   0.0219479
        k(   43) = (   0.1666667  -0.5000000   0.2763958), wk =   0.0219479
        k(   44) = (   0.1666667  -0.5000000   0.3869541), wk =   0.0219479
        k(   45) = (   0.1666667  -0.5000000  -0.4975124), wk =   0.0109739
        k(   46) = (   0.2777778   0.2777778   0.0552792), wk =   0.0219479
        k(   47) = (   0.2777778   0.2777778   0.1658375), wk =   0.0219479
        k(   48) = (   0.2777778   0.2777778   0.2763958), wk =   0.0219479
        k(   49) = (   0.2777778   0.2777778   0.3869541), wk =   0.0219479
        k(   50) = (   0.2777778   0.2777778  -0.4975124), wk =   0.0109739
        k(   51) = (   0.2777778   0.3888889   0.0552792), wk =   0.0438957
        k(   52) = (   0.2777778   0.3888889   0.1658375), wk =   0.0438957
        k(   53) = (   0.2777778   0.3888889   0.2763958), wk =   0.0438957
        k(   54) = (   0.2777778   0.3888889   0.3869541), wk =   0.0438957
        k(   55) = (   0.2777778   0.3888889  -0.4975124), wk =   0.0219479
        k(   56) = (   0.2777778  -0.5000000   0.0552792), wk =   0.0219479
        k(   57) = (   0.2777778  -0.5000000   0.1658375), wk =   0.0219479
        k(   58) = (   0.2777778  -0.5000000   0.2763958), wk =   0.0219479
        k(   59) = (   0.2777778  -0.5000000   0.3869541), wk =   0.0219479
        k(   60) = (   0.2777778  -0.5000000  -0.4975124), wk =   0.0109739
        k(   61) = (   0.3888889   0.3888889   0.0552792), wk =   0.0219479
        k(   62) = (   0.3888889   0.3888889   0.1658375), wk =   0.0219479
        k(   63) = (   0.3888889   0.3888889   0.2763958), wk =   0.0219479
        k(   64) = (   0.3888889   0.3888889   0.3869541), wk =   0.0219479
        k(   65) = (   0.3888889   0.3888889  -0.4975124), wk =   0.0109739
        k(   66) = (   0.3888889  -0.5000000   0.0552792), wk =   0.0219479
        k(   67) = (   0.3888889  -0.5000000   0.1658375), wk =   0.0219479
        k(   68) = (   0.3888889  -0.5000000   0.2763958), wk =   0.0219479
        k(   69) = (   0.3888889  -0.5000000   0.3869541), wk =   0.0219479
        k(   70) = (   0.3888889  -0.5000000  -0.4975124), wk =   0.0109739
        k(   71) = (  -0.5000000  -0.5000000   0.0552792), wk =   0.0054870
        k(   72) = (  -0.5000000  -0.5000000   0.1658375), wk =   0.0054870
        k(   73) = (  -0.5000000  -0.5000000   0.2763958), wk =   0.0054870
        k(   74) = (  -0.5000000  -0.5000000   0.3869541), wk =   0.0054870
        k(   75) = (  -0.5000000  -0.5000000  -0.4975124), wk =   0.0027435

     Check: negative/imaginary core charge=   -0.000002    0.000000

     Initial potential from superposition of free atoms

     starting charge  575.98776, renormalised to  576.00000
     Starting wfcs are  320 randomized atomic wfcs +   26 random wfcs
     Checking if some PAW data can be deallocated...

     Self-consistent Calculation

     iteration #  1     ecut=    71.00 Ry     beta= 0.10
     Davidson diagonalization with overlap
     ethr =  1.00E-02,  avg # of iterations =  3.1

     Threshold (ethr) on eigenvalues was too large:
     Diagonalizing with lowered threshold

     Davidson diagonalization with overlap
     ethr =  8.59E-05,  avg # of iterations =  3.1

     total energy              =  -16385.02305457 Ry
     Harris-Foulkes estimate   =  -16385.09286320 Ry
     estimated scf accuracy    <       0.48875355 Ry

[...]

     total energy              =  -16384.95932226 Ry
     Harris-Foulkes estimate   =  -16384.95931913 Ry
     estimated scf accuracy    <       0.00000433 Ry

     iteration # 11     ecut=    71.00 Ry     beta= 0.10
     Davidson diagonalization with overlap
     ethr =  7.51E-10,  avg # of iterations =  1.0

     End of self-consistent calculation

          k = 0.0556 0.0556 0.0553 ( 33154 PWs)   bands (ev):

   -64.9845 -64.9564 -64.9560 -64.9559 -64.9510 -64.9505 -64.9504 -64.9406
   -64.9406 -64.9405 -64.9383 -64.9380 -64.9377 -64.9377 -64.9376 -64.9375
   -64.9375 -64.9374 -64.9373 -64.9368 -64.9351 -64.9350 -64.9350 -64.9229
   -64.9226 -64.9224 -64.9223 -64.9222 -64.9221 -64.9218 -64.9216 -64.9210
   -30.8658 -30.8658 -30.8657 -30.8639 -30.8462 -30.8462 -30.8443 -30.7714
   -30.7680 -30.7680 -30.7672 -30.7672 -30.7638 -30.7638 -30.7635 -30.7635
   -30.7596 -30.7559 -30.7559 -30.7538 -30.7538 -30.7514 -30.7514 -30.7507
   -30.7506 -30.7358 -30.7358 -30.7328 -30.7328 -30.7324 -30.7323 -30.6937
   -30.6937 -30.6924 -30.6699 -30.6699 -30.6683 -30.6637 -30.6637 -30.6627
   -30.6548 -30.6548 -30.6543 -30.6543 -30.6532 -30.6532 -30.6408 -30.6408
   -30.6398 -30.6398 -30.6394 -30.6394 -30.6389 -30.6389 -30.6384 -30.6373
   -30.6370 -30.6359 -30.6356 -30.6353 -30.6343 -30.5759 -30.5759 -30.5732
   -30.5731 -30.5730 -30.5727 -30.5634 -30.5634 -30.5612 -30.5611 -30.5609
   -30.5609 -30.5592 -30.5591 -30.5570 -30.5553 -30.5546 -30.5546 -30.5541
   -30.5540 -30.5540 -30.5540 -30.5532 -30.5530 -30.5523 -30.5520 -30.5516
   -30.5514 -30.5506 -30.5471 -30.5471 -30.5451 -30.5016 -30.4993 -30.4992
    12.2021  13.9618  13.9620  13.9621  14.0274  14.0410  14.0411  14.0411
    14.2142  14.2312  14.2313  14.2349  14.2352  14.2352  14.4102  14.4267
    14.4268  14.9572  14.9573  14.9740  14.9741  14.9744  14.9745  15.1095
    15.1264  15.1265  15.2662  15.2672  15.2672  15.2923  15.3128  15.3129
    15.3476  15.3476  15.3488  15.3502  15.3502  15.3507  15.3507  15.3535
    15.3536  15.6846  15.6846  15.6949  15.6949  15.6984  15.6985  15.7881
    15.8046  15.8046  15.8090  15.8090  15.8259  15.8260  15.8281  15.8282
    15.8648  15.8839  15.8840  16.0365  16.0365  16.0482  16.0482  16.0530
    16.0531  16.1478  16.1479  16.1531  16.1532  16.1536  16.1537  16.1584
    16.1607  16.1608  16.2618  16.2619  16.2644  16.3049  16.3228  16.3228
    16.3255  16.3566  16.3604  16.3605  16.3680  16.3785  16.3978  16.4087
    17.1685  17.1937  17.1937  17.2425  17.2425  17.2531  17.3144  17.3145
    17.3159  17.3160  17.3215  17.3216  17.3243  17.3243  17.3295  17.3534
    17.3809  17.3810  17.4677  17.4678  17.4861  17.5905  17.5906  17.5956
    17.7104  17.7104  17.7272  17.7682  17.7683  17.7830  17.8433  17.8433
    17.8477  17.8477  17.8482  17.8483  17.8647  17.8647  17.8668  17.8883
    17.9151  17.9151  17.9159  17.9160  17.9286  17.9286  17.9352  18.0239
    18.0239  18.0369  18.4052  18.4053  18.4260  18.5071  18.5072  18.5250
    18.8895  18.8896  18.9034  19.0154  19.0154  19.0179  19.0334  19.0525
    19.0532  19.0682  19.0682  19.2884  19.2888  19.2888  19.3360  19.3360
    19.3372  19.3372  19.3463  19.3531  19.3531  19.3619  19.3619  20.0255
    20.3289  20.3289  20.3292  20.8286  20.8286  20.8567  21.3341  21.3341
    21.3358  21.3359  21.3687  21.3687  21.8608  21.8608  21.8995  22.4041
    22.4978  22.4978  26.1851  26.1852  26.1859  26.3422  27.3025  27.3025
    27.3455  27.3455  27.3889  27.3889  27.9934  27.9934  28.0339  28.0339
    28.0803  28.0804  29.4089  29.4089  29.4269  29.4270  29.4707  29.4707
    29.5061  29.6375  29.6375  30.5094  30.5809  30.5810  30.5962  30.5963
    30.6268  30.6268

[...]

          k = 0.3889-0.5000-0.4975 ( 33184 PWs)   bands (ev):

[...]

          k =-0.5000-0.5000 0.0553 ( 33144 PWs)   bands (ev):

[...]

          k =-0.5000-0.5000-0.4975 ( 33152 PWs)   bands (ev):

   -64.9619 -64.9617 -64.9616 -64.9615 -64.9611 -64.9609 -64.9609 -64.9607
   -64.9308 -64.9306 -64.9306 -64.9305 -64.9305 -64.9304 -64.9304 -64.9303
   -64.9300 -64.9300 -64.9298 -64.9298 -64.9297 -64.9297 -64.9296 -64.9296
   -64.9296 -64.9295 -64.9294 -64.9293 -64.9291 -64.9289 -64.9289 -64.9288
   -30.8063 -30.8062 -30.8062 -30.8062 -30.8058 -30.8058 -30.8057 -30.8057
   -30.8055 -30.8055 -30.8055 -30.8055 -30.8051 -30.8050 -30.8050 -30.8050
   -30.8039 -30.8038 -30.8038 -30.8037 -30.8037 -30.8036 -30.8035 -30.8034
   -30.6848 -30.6847 -30.6847 -30.6847 -30.6845 -30.6845 -30.6844 -30.6844
   -30.6485 -30.6485 -30.6485 -30.6484 -30.6482 -30.6482 -30.6482 -30.6482
   -30.6482 -30.6482 -30.6481 -30.6481 -30.6479 -30.6479 -30.6479 -30.6478
   -30.6478 -30.6478 -30.6478 -30.6477 -30.6477 -30.6476 -30.6476 -30.6475
   -30.5958 -30.5958 -30.5957 -30.5957 -30.5957 -30.5957 -30.5956 -30.5956
   -30.5954 -30.5954 -30.5953 -30.5953 -30.5953 -30.5953 -30.5952 -30.5952
   -30.5934 -30.5934 -30.5933 -30.5933 -30.5926 -30.5926 -30.5926 -30.5925
   -30.5264 -30.5263 -30.5263 -30.5262 -30.5261 -30.5260 -30.5260 -30.5259
   -30.5252 -30.5252 -30.5252 -30.5252 -30.5245 -30.5245 -30.5245 -30.5244
    13.8318  13.8322  13.8322  13.8325  13.8326  13.8329  13.8329  13.8332
    14.6799  14.6800  14.6800  14.6800  14.6806  14.6807  14.6807  14.6807
    14.6830  14.6830  14.6830  14.6832  14.6832  14.6832  14.6833  14.6833
    14.6834  14.6834  14.6834  14.6834  14.6836  14.6836  14.6836  14.6836
    15.4324  15.4325  15.4327  15.4327  15.4328  15.4329  15.4330  15.4330
    15.4330  15.4330  15.4330  15.4332  15.4333  15.4334  15.4334  15.4335
    15.4361  15.4364  15.4364  15.4365  15.4370  15.4372  15.4373  15.4373
    16.3579  16.3581  16.3581  16.3581  16.3581  16.3582  16.3582  16.3582
    16.6443  16.6444  16.6444  16.6445  16.6447  16.6448  16.6448  16.6449
    16.6839  16.6840  16.6840  16.6842  16.6843  16.6843  16.6843  16.6845
    16.8334  16.8335  16.8335  16.8336  16.8339  16.8340  16.8340  16.8342
    16.8559  16.8559  16.8559  16.8560  16.8560  16.8561  16.8561  16.8561
    16.8562  16.8562  16.8562  16.8562  16.8563  16.8563  16.8564  16.8564
    17.5550  17.5550  17.5552  17.5553  17.5554  17.5555  17.5555  17.5555
    17.5555  17.5556  17.5556  17.5557  17.5558  17.5559  17.5560  17.5561
    17.5746  17.5747  17.5747  17.5748  17.5749  17.5750  17.5750  17.5751
    18.0566  18.0567  18.0568  18.0568  18.0572  18.0572  18.0574  18.0574
    18.0699  18.0699  18.0700  18.0701  18.0702  18.0703  18.0703  18.0705
    19.1417  19.1417  19.1417  19.1418  19.1418  19.1419  19.1419  19.1420
    19.1487  19.1487  19.1487  19.1488  19.1489  19.1490  19.1490  19.1490
    19.1491  19.1491  19.1491  19.1492  19.1494  19.1494  19.1494  19.1495
    22.6833  22.6836  22.6836  22.6837  22.6838  22.6840  22.6840  22.6842
    22.7244  22.7245  22.7245  22.7247  22.7247  22.7249  22.7249  22.7249
    22.7250  22.7251  22.7252  22.7253  22.7253  22.7255  22.7256  22.7256
    28.1222  28.1222  28.1224  28.1224  28.1224  28.1225  28.1225  28.1226
    28.1228  28.1229  28.1229  28.1229  28.1229  28.1231  28.1231  28.1231
    28.1682  28.1684  28.1685  28.1685  28.1690  28.1692  28.1693  28.1693
    33.3971  33.3974

     the Fermi energy is    19.1688 ev

!    total energy              =  -16384.95933359 Ry
     Harris-Foulkes estimate   =  -16384.95932257 Ry
     estimated scf accuracy    <       0.00000050 Ry

     total all-electron energy =   -322945.813041 Ry

     The total energy is the sum of the following terms:

     one-electron contribution =   -2501.10134456 Ry
     hartree contribution      =    1665.99467415 Ry
     xc contribution           =    -986.41168277 Ry
     ewald contribution        =   -6396.05433137 Ry
     one-center paw contrib.   =   -8167.42124253 Ry
     smearing contrib. (-TS)   =       0.03459349 Ry

     convergence has been achieved in  11 iterations

     Forces acting on atoms (cartesian axes, Ry/au):

     atom    1 type  1   force =     0.00000000    0.00000000    0.00000000
     atom    2 type  1   force =     0.00009257    0.00009257    0.00000000
     atom    3 type  1   force =     0.00005372    0.00000000   -0.00001117
     atom    4 type  1   force =     0.00000000    0.00005372   -0.00001117
     atom    5 type  1   force =     0.00000000    0.00000000    0.00000000
     atom    6 type  1   force =     0.00012377    0.00012377    0.00000000
     atom    7 type  1   force =     0.00005372    0.00000000    0.00001117
     atom    8 type  1   force =     0.00000000    0.00005372    0.00001117
     atom    9 type  1   force =     0.00000000    0.00000000    0.00000000
     atom   10 type  1   force =     0.00009257   -0.00009257    0.00000000
     atom   11 type  1   force =     0.00015661    0.00000000   -0.00001276
     atom   12 type  1   force =     0.00000000   -0.00005372   -0.00001117
     atom   13 type  1   force =     0.00000000    0.00000000    0.00000000
     atom   14 type  1   force =     0.00012377   -0.00012377    0.00000000
     atom   15 type  1   force =     0.00015661    0.00000000    0.00001276
     atom   16 type  1   force =     0.00000000   -0.00005372    0.00001117
     atom   17 type  1   force =     0.00000000    0.00000000    0.00000000
     atom   18 type  1   force =    -0.00009257    0.00009257    0.00000000
     atom   19 type  1   force =    -0.00005372   -0.00000000   -0.00001117
     atom   20 type  1   force =     0.00000000    0.00015661   -0.00001276
     atom   21 type  1   force =     0.00000000    0.00000000    0.00000000
     atom   22 type  1   force =    -0.00012377    0.00012377    0.00000000
     atom   23 type  1   force =    -0.00005372    0.00000000    0.00001117
     atom   24 type  1   force =     0.00000000    0.00015661    0.00001276
     atom   25 type  1   force =     0.00000000    0.00000000    0.00000000
     atom   26 type  1   force =    -0.00009257   -0.00009257    0.00000000
     atom   27 type  1   force =    -0.00015661    0.00000000   -0.00001276
     atom   28 type  1   force =     0.00000000   -0.00015661   -0.00001276
     atom   29 type  1   force =     0.00000000    0.00000000    0.00000000
     atom   30 type  1   force =    -0.00012377   -0.00012377    0.00000000
     atom   31 type  1   force =    -0.00015661    0.00000000    0.00001276
     atom   32 type  1   force =     0.00000000   -0.00015661    0.00001276

     Total force =     0.000642     Total SCF correction =     0.005416
     SCF correction compared to forces is large: reduce conv_thr to get better values

     Computing stress (Cartesian axis) and pressure

          total   stress  (Ry/bohr**3)                   (kbar)     P=   -7.40
  -0.00004182   0.00000000   0.00000000         -6.15      0.00      0.00
   0.00000000  -0.00004182   0.00000000          0.00     -6.15      0.00
   0.00000000   0.00000000  -0.00006721          0.00      0.00     -9.89

     Writing output data file umRKBLJjGULJwsJH.save/

     General routines

     Parallel routines

   This run was terminated on:  22: 2:57  11Nov2020

   JOB DONE.