     Program PWSCF v.6.3 starts on 11Nov2020 at  8:25:57

     R & G space division:  proc/nbgrp/npool/nimage =      20
     Reading input from wd/eos/eos_003.in
Warning: card &IONS ignored
Warning: card ION_DYNAMICS = 'BFGS', ignored
Warning: card / ignored
Warning: card &CELL ignored
Warning: card CELL_DYNAMICS = 'BFGS', ignored
Warning: card CELL_FACTOR = 2.0, ignored
Warning: card PRESS = 0.0, ignored
Warning: card / ignored

     Current dimensions of program PWSCF are:
     Max number of different atomic species (ntypx) = 10
     Max number of k-points (npk) =  40000
     Max angular momentum in pseudopotentials (lmaxx) =  3
               file Pd.pbe-spn-kjpaw_psl.1.0.0.UPF: wavefunction(s)  4S 5S 4D renormalized

     Subspace diagonalization in iterative solution of the eigenvalue problem:
     a serial algorithm will be used

     bravais-lattice index     =            0
     lattice parameter (alat)  =      14.8394  a.u.
     unit-cell volume          =    3251.4530 (a.u.)^3
     number of atoms/cell      =           32
     number of atomic types    =            1
     number of electrons       =       576.00
     number of Kohn-Sham states=          346
     kinetic-energy cutoff     =      71.0000  Ry
     charge density cutoff     =     430.0000  Ry
     convergence threshold     =      1.0E-06
     mixing beta               =       0.1000
     number of iterations used =           10  plain     mixing
     Exchange-correlation      = SLA PW PBX PBC ( 1  4  3  4 0 0)

     celldm(1)=  14.839420  celldm(2)=   0.000000  celldm(3)=   0.000000
     celldm(4)=   0.000000  celldm(5)=   0.000000  celldm(6)=   0.000000

     crystal axes: (cart. coord. in units of alat)
               a(1) = (   0.998333   0.000000   0.000000 )
               a(2) = (   0.000000   0.998333   0.000000 )
               a(3) = (   0.000000   0.000000   0.998333 )

     reciprocal axes: (cart. coord. in units 2 pi/alat)
               b(1) = (  1.001669  0.000000  0.000000 )
               b(2) = (  0.000000  1.001669  0.000000 )
               b(3) = (  0.000000  0.000000  1.001669 )

     PseudoPot. # 1 for Pd read from file:
     /rds/homes/b/bxp912/pp/Pd.pbe-spn-kjpaw_psl.1.0.0.UPF
     MD5 check sum: 790f2ebce206edfd9790dcb9844eca51
     Pseudo is Projector augmented-wave + core cor, Zval = 18.0
     Generated using "atomic" code by A. Dal Corso v.6.3
     Shape of augmentation charge: PSQ
     Using radial grid of 1235 points,  6 beta functions with:
                l(1) =   0
                l(2) =   0
                l(3) =   1
                l(4) =   1
                l(5) =   2
                l(6) =   2
     Q(r) pseudized with 0 coefficients

     atomic species   valence    mass     pseudopotential
        Pd            18.00   106.42000     Pd( 1.00)

     48 Sym. Ops., with inversion, found

   Cartesian axes

     site n.     atom                  positions (alat units)
         1           Pd  tau(   1) = (   0.0000000   0.0000000   0.0000000  )
         2           Pd  tau(   2) = (   0.2495878   0.2495878   0.0000000  )
         3           Pd  tau(   3) = (   0.2495878   0.0000000   0.2495873  )
         4           Pd  tau(   4) = (   0.0000000   0.2495878   0.2495873  )
         5           Pd  tau(   5) = (   0.0000000   0.0000000   0.4991657  )
         6           Pd  tau(   6) = (   0.2495949   0.2495949   0.4991657  )
         7           Pd  tau(   7) = (   0.2495878   0.0000000   0.7487451  )
         8           Pd  tau(   8) = (   0.0000000   0.2495878   0.7487451  )
         9           Pd  tau(   9) = (   0.0000000   0.4991665   0.0000000  )
        10           Pd  tau(  10) = (   0.2495878   0.7487453   0.0000000  )
        11           Pd  tau(  11) = (   0.2495949   0.4991665   0.2495942  )
        12           Pd  tau(  12) = (   0.0000000   0.7487453   0.2495873  )
        13           Pd  tau(  13) = (   0.0000000   0.4991665   0.4991657  )
        14           Pd  tau(  14) = (   0.2495949   0.7487381   0.4991657  )
        15           Pd  tau(  15) = (   0.2495949   0.4991665   0.7487381  )
        16           Pd  tau(  16) = (   0.0000000   0.7487453   0.7487451  )
        17           Pd  tau(  17) = (   0.4991665   0.0000000   0.0000000  )
        18           Pd  tau(  18) = (   0.7487453   0.2495878   0.0000000  )
        19           Pd  tau(  19) = (   0.7487453   0.0000000   0.2495873  )
        20           Pd  tau(  20) = (   0.4991665   0.2495949   0.2495942  )
        21           Pd  tau(  21) = (   0.4991665   0.0000000   0.4991657  )
        22           Pd  tau(  22) = (   0.7487381   0.2495949   0.4991657  )
        23           Pd  tau(  23) = (   0.7487453   0.0000000   0.7487451  )
        24           Pd  tau(  24) = (   0.4991665   0.2495949   0.7487381  )
        25           Pd  tau(  25) = (   0.4991665   0.4991665   0.0000000  )
        26           Pd  tau(  26) = (   0.7487453   0.7487453   0.0000000  )
        27           Pd  tau(  27) = (   0.7487381   0.4991665   0.2495942  )
        28           Pd  tau(  28) = (   0.4991665   0.7487381   0.2495942  )
        29           Pd  tau(  29) = (   0.4991665   0.4991665   0.4991657  )
        30           Pd  tau(  30) = (   0.7487381   0.7487381   0.4991657  )
        31           Pd  tau(  31) = (   0.7487381   0.4991665   0.7487381  )
        32           Pd  tau(  32) = (   0.4991665   0.7487381   0.7487381  )

     number of k points=    35  Marzari-Vanderbilt smearing, width (Ry)=  0.0400
                       cart. coord. in units 2pi/alat
        k(    1) = (   0.0556483   0.0556483   0.0556483), wk =   0.0219479
        k(    2) = (   0.0556483   0.0556483   0.1669449), wk =   0.0658436
        k(    3) = (   0.0556483   0.0556483   0.2782415), wk =   0.0658436
        k(    4) = (   0.0556483   0.0556483   0.3895381), wk =   0.0658436
        k(    5) = (   0.0556483   0.0556483  -0.5008347), wk =   0.0329218
        k(    6) = (   0.0556483   0.1669449   0.1669449), wk =   0.0658436
        k(    7) = (   0.0556483   0.1669449   0.2782415), wk =   0.1316872
        k(    8) = (   0.0556483   0.1669449   0.3895381), wk =   0.1316872
        k(    9) = (   0.0556483   0.1669449  -0.5008347), wk =   0.0658436
        k(   10) = (   0.0556483   0.2782415   0.2782415), wk =   0.0658436
        k(   11) = (   0.0556483   0.2782415   0.3895381), wk =   0.1316872
        k(   12) = (   0.0556483   0.2782415  -0.5008347), wk =   0.0658436
        k(   13) = (   0.0556483   0.3895381   0.3895381), wk =   0.0658436
        k(   14) = (   0.0556483   0.3895381  -0.5008347), wk =   0.0658436
        k(   15) = (   0.0556483  -0.5008347  -0.5008347), wk =   0.0164609
        k(   16) = (   0.1669449   0.1669449   0.1669449), wk =   0.0219479
        k(   17) = (   0.1669449   0.1669449   0.2782415), wk =   0.0658436
        k(   18) = (   0.1669449   0.1669449   0.3895381), wk =   0.0658436
        k(   19) = (   0.1669449   0.1669449  -0.5008347), wk =   0.0329218
        k(   20) = (   0.1669449   0.2782415   0.2782415), wk =   0.0658436
        k(   21) = (   0.1669449   0.2782415   0.3895381), wk =   0.1316872
        k(   22) = (   0.1669449   0.2782415  -0.5008347), wk =   0.0658436
        k(   23) = (   0.1669449   0.3895381   0.3895381), wk =   0.0658436
        k(   24) = (   0.1669449   0.3895381  -0.5008347), wk =   0.0658436
        k(   25) = (   0.1669449  -0.5008347  -0.5008347), wk =   0.0164609
        k(   26) = (   0.2782415   0.2782415   0.2782415), wk =   0.0219479
        k(   27) = (   0.2782415   0.2782415   0.3895381), wk =   0.0658436
        k(   28) = (   0.2782415   0.2782415  -0.5008347), wk =   0.0329218
        k(   29) = (   0.2782415   0.3895381   0.3895381), wk =   0.0658436
        k(   30) = (   0.2782415   0.3895381  -0.5008347), wk =   0.0658436
        k(   31) = (   0.2782415  -0.5008347  -0.5008347), wk =   0.0164609
        k(   32) = (   0.3895381   0.3895381   0.3895381), wk =   0.0219479
        k(   33) = (   0.3895381   0.3895381  -0.5008347), wk =   0.0329218
        k(   34) = (   0.3895381  -0.5008347  -0.5008347), wk =   0.0164609
        k(   35) = (  -0.5008347  -0.5008347  -0.5008347), wk =   0.0027435

     Check: negative/imaginary core charge=   -0.000002    0.000000

     Initial potential from superposition of free atoms

     starting charge  575.98776, renormalised to  576.00000
     Starting wfcs are  320 randomized atomic wfcs +   26 random wfcs
     Checking if some PAW data can be deallocated...

     Self-consistent Calculation

     iteration #  1     ecut=    71.00 Ry     beta= 0.10
     Davidson diagonalization with overlap
     ethr =  1.00E-02,  avg # of iterations =  3.0

     Threshold (ethr) on eigenvalues was too large:
     Diagonalizing with lowered threshold

     Davidson diagonalization with overlap
     ethr =  8.02E-05,  avg # of iterations =  3.3

     total energy              =  -16385.01601478 Ry
     Harris-Foulkes estimate   =  -16385.08082216 Ry
     estimated scf accuracy    <       0.45687961 Ry

[...]

     total energy              =  -16384.95579028 Ry
     Harris-Foulkes estimate   =  -16384.95578708 Ry
     estimated scf accuracy    <       0.00000531 Ry

     iteration # 10     ecut=    71.00 Ry     beta= 0.10
     Davidson diagonalization with overlap
     ethr =  9.22E-10,  avg # of iterations =  1.0

     End of self-consistent calculation

          k = 0.0556 0.0556 0.0556 ( 32849 PWs)   bands (ev):

   -64.7539 -64.7242 -64.7241 -64.7241 -64.7185 -64.7184 -64.7184 -64.7080
   -64.7079 -64.7078 -64.7055 -64.7052 -64.7050 -64.7049 -64.7048 -64.7047
   -64.7047 -64.7045 -64.7044 -64.7039 -64.7021 -64.7021 -64.7020 -64.6893
   -64.6889 -64.6888 -64.6886 -64.6885 -64.6884 -64.6883 -64.6883 -64.6878
   -30.6418 -30.6418 -30.6418 -30.6402 -30.6210 -30.6210 -30.6210 -30.5418
   -30.5418 -30.5418 -30.5374 -30.5374 -30.5373 -30.5373 -30.5373 -30.5372
   -30.5294 -30.5294 -30.5294 -30.5240 -30.5240 -30.5240 -30.5239 -30.5239
   -30.5239 -30.5050 -30.5050 -30.5050 -30.5049 -30.5049 -30.5049 -30.4632
   -30.4632 -30.4632 -30.4381 -30.4381 -30.4381 -30.4319 -30.4319 -30.4319
   -30.4224 -30.4224 -30.4224 -30.4224 -30.4224 -30.4224 -30.4071 -30.4070
   -30.4070 -30.4065 -30.4062 -30.4062 -30.4062 -30.4061 -30.4061 -30.4055
   -30.4055 -30.4053 -30.4040 -30.4040 -30.4039 -30.3394 -30.3394 -30.3394
   -30.3392 -30.3392 -30.3392 -30.3267 -30.3267 -30.3267 -30.3266 -30.3266
   -30.3265 -30.3231 -30.3231 -30.3230 -30.3189 -30.3185 -30.3185 -30.3179
   -30.3179 -30.3178 -30.3177 -30.3177 -30.3176 -30.3173 -30.3173 -30.3170
   -30.3161 -30.3161 -30.3106 -30.3105 -30.3105 -30.2642 -30.2614 -30.2614
    12.3875  14.1409  14.1409  14.1409  14.2130  14.2268  14.2268  14.2268
    14.4183  14.4183  14.4183  14.4230  14.4231  14.4232  14.6172  14.6173
    14.6174  15.1610  15.1610  15.1611  15.1611  15.1611  15.1613  15.3168
    15.3169  15.3169  15.4712  15.4712  15.4712  15.5048  15.5049  15.5049
    15.5537  15.5538  15.5538  15.5538  15.5538  15.5539  15.5551  15.5552
    15.5552  15.8984  15.8984  15.8984  15.8985  15.8985  15.8985  16.0065
    16.0066  16.0066  16.0286  16.0287  16.0287  16.0287  16.0287  16.0288
    16.0858  16.0859  16.0859  16.2570  16.2570  16.2570  16.2570  16.2571
    16.2571  16.3626  16.3627  16.3627  16.3668  16.3668  16.3668  16.3669
    16.3669  16.3670  16.4753  16.4754  16.4754  16.5413  16.5414  16.5414
    16.5625  16.5625  16.5732  16.5732  16.5732  16.5917  16.6115  16.6115
    17.4144  17.4145  17.4145  17.4754  17.4755  17.4755  17.5487  17.5487
    17.5487  17.5488  17.5488  17.5488  17.5548  17.5548  17.5549  17.6032
    17.6033  17.6034  17.7082  17.7082  17.7083  17.8274  17.8276  17.8276
    17.9540  17.9540  17.9542  18.0121  18.0121  18.0122  18.0853  18.0854
    18.0854  18.0854  18.0855  18.0855  18.1047  18.1048  18.1048  18.1543
    18.1543  18.1613  18.1613  18.1613  18.1613  18.1614  18.1615  18.2715
    18.2715  18.2716  18.6627  18.6627  18.6628  18.7653  18.7654  18.7654
    19.1501  19.1501  19.1501  19.2773  19.2773  19.2773  19.3043  19.3043
    19.3247  19.3247  19.3247  19.5568  19.5568  19.5568  19.6117  19.6118
    19.6118  19.6118  19.6118  19.6118  19.6149  19.6149  19.6150  20.2649
    20.5742  20.5742  20.5742  21.1173  21.1174  21.1174  21.6297  21.6297
    21.6297  21.6297  21.6297  21.6298  22.1610  22.1610  22.1610  22.7285
    22.7285  22.7285  26.5239  26.5239  26.5239  26.6806  27.6608  27.6608
    27.6609  27.6609  27.6609  27.6610  28.3555  28.3555  28.3555  28.3557
    28.3557  28.3557  29.7811  29.7811  29.7811  29.7811  29.7811  29.7811
    29.9556  29.9556  29.9556  30.9024  30.9358  30.9359  30.9360  30.9360
    30.9360  30.9361

[...]

          k = 0.3895-0.5008-0.5008 ( 32820 PWs)   bands (ev):

[...]

          k =-0.5008-0.5008-0.5008 ( 32752 PWs)   bands (ev):

   -64.7303 -64.7300 -64.7299 -64.7298 -64.7295 -64.7292 -64.7292 -64.7290
   -64.6977 -64.6975 -64.6974 -64.6973 -64.6972 -64.6971 -64.6970 -64.6969
   -64.6969 -64.6968 -64.6968 -64.6967 -64.6966 -64.6965 -64.6964 -64.6964
   -64.6963 -64.6962 -64.6961 -64.6960 -64.6960 -64.6959 -64.6958 -64.6956
   -30.5796 -30.5795 -30.5795 -30.5794 -30.5793 -30.5792 -30.5791 -30.5791
   -30.5790 -30.5790 -30.5790 -30.5790 -30.5788 -30.5788 -30.5788 -30.5788
   -30.5787 -30.5787 -30.5786 -30.5785 -30.5783 -30.5783 -30.5782 -30.5782
   -30.4542 -30.4542 -30.4541 -30.4541 -30.4540 -30.4539 -30.4539 -30.4538
   -30.4163 -30.4163 -30.4163 -30.4162 -30.4162 -30.4162 -30.4161 -30.4161
   -30.4161 -30.4161 -30.4160 -30.4160 -30.4160 -30.4160 -30.4159 -30.4159
   -30.4159 -30.4159 -30.4158 -30.4158 -30.4158 -30.4157 -30.4157 -30.4156
   -30.3611 -30.3611 -30.3610 -30.3610 -30.3610 -30.3609 -30.3609 -30.3609
   -30.3608 -30.3608 -30.3607 -30.3607 -30.3606 -30.3606 -30.3604 -30.3604
   -30.3604 -30.3604 -30.3603 -30.3603 -30.3602 -30.3602 -30.3602 -30.3602
   -30.2893 -30.2893 -30.2893 -30.2892 -30.2892 -30.2890 -30.2890 -30.2889
   -30.2888 -30.2887 -30.2887 -30.2886 -30.2885 -30.2885 -30.2885 -30.2884
    14.0262  14.0267  14.0267  14.0269  14.0270  14.0274  14.0274  14.0277
    14.8729  14.8730  14.8730  14.8730  14.8731  14.8731  14.8731  14.8732
    14.8732  14.8732  14.8733  14.8733  14.8734  14.8735  14.8735  14.8736
    14.8737  14.8737  14.8737  14.8737  14.8737  14.8737  14.8738  14.8738
    15.6339  15.6340  15.6342  15.6343  15.6343  15.6343  15.6343  15.6344
    15.6344  15.6345  15.6346  15.6346  15.6346  15.6347  15.6347  15.6348
    15.6349  15.6350  15.6350  15.6351  15.6351  15.6352  15.6352  15.6352
    16.5741  16.5743  16.5743  16.5743  16.5743  16.5744  16.5744  16.5744
    16.8852  16.8853  16.8853  16.8853  16.8854  16.8854  16.8854  16.8855
    16.8856  16.8856  16.8857  16.8857  16.8858  16.8858  16.8858  16.8859
    17.0717  17.0718  17.0718  17.0719  17.0719  17.0719  17.0720  17.0720
    17.0721  17.0721  17.0721  17.0721  17.0722  17.0722  17.0722  17.0722
    17.0723  17.0723  17.0723  17.0724  17.0724  17.0724  17.0724  17.0726
    17.7966  17.7966  17.7967  17.7967  17.7968  17.7969  17.7969  17.7969
    17.7970  17.7970  17.7971  17.7971  17.7971  17.7971  17.7972  17.7972
    17.7973  17.7974  17.7974  17.7974  17.7974  17.7974  17.7975  17.7977
    18.3071  18.3072  18.3073  18.3073  18.3073  18.3074  18.3074  18.3075
    18.3076  18.3077  18.3077  18.3078  18.3078  18.3079  18.3080  18.3080
    19.4096  19.4096  19.4096  19.4097  19.4097  19.4098  19.4098  19.4099
    19.4099  19.4099  19.4099  19.4099  19.4100  19.4100  19.4100  19.4101
    19.4101  19.4101  19.4102  19.4102  19.4103  19.4103  19.4103  19.4104
    22.9977  22.9978  22.9979  22.9979  22.9981  22.9981  22.9982  22.9982
    22.9982  22.9983  22.9983  22.9983  22.9984  22.9985  22.9985  22.9985
    22.9986  22.9987  22.9987  22.9988  22.9989  22.9989  22.9990  22.9990
    28.4634  28.4635  28.4635  28.4636  28.4636  28.4636  28.4636  28.4636
    28.4637  28.4638  28.4638  28.4640  28.4642  28.4642  28.4642  28.4643
    28.4643  28.4643  28.4644  28.4644  28.4645  28.4645  28.4646  28.4646
    33.7047  33.7060

     the Fermi energy is    19.4296 ev

!    total energy              =  -16384.95580224 Ry
     Harris-Foulkes estimate   =  -16384.95579063 Ry
     estimated scf accuracy    <       0.00000089 Ry

     total all-electron energy =   -322945.809509 Ry

     The total energy is the sum of the following terms:

     one-electron contribution =   -2467.79446037 Ry
     hartree contribution      =    1654.27620993 Ry
     xc contribution           =    -986.64198776 Ry
     ewald contribution        =   -6417.39488888 Ry
     one-center paw contrib.   =   -8167.43187708 Ry
     smearing contrib. (-TS)   =       0.03120193 Ry

     convergence has been achieved in  10 iterations

     Forces acting on atoms (cartesian axes, Ry/au):

     atom    1 type  1   force =     0.00000000    0.00000000    0.00000000
     atom    2 type  1   force =     0.00005870    0.00005870    0.00000000
     atom    3 type  1   force =     0.00005870    0.00000000    0.00005870
     atom    4 type  1   force =     0.00000000    0.00005870    0.00005870
     atom    5 type  1   force =     0.00000000    0.00000000    0.00000000
     atom    6 type  1   force =     0.00012825    0.00012825    0.00000000
     atom    7 type  1   force =     0.00005870    0.00000000   -0.00005870
     atom    8 type  1   force =     0.00000000    0.00005870   -0.00005870
     atom    9 type  1   force =     0.00000000    0.00000000    0.00000000
     atom   10 type  1   force =     0.00005870   -0.00005870   -0.00000000
     atom   11 type  1   force =     0.00012825    0.00000000    0.00012825
     atom   12 type  1   force =     0.00000000   -0.00005870    0.00005870
     atom   13 type  1   force =     0.00000000    0.00000000    0.00000000
     atom   14 type  1   force =     0.00012825   -0.00012825   -0.00000000
     atom   15 type  1   force =     0.00012825   -0.00000000   -0.00012825
     atom   16 type  1   force =     0.00000000   -0.00005870   -0.00005870
     atom   17 type  1   force =     0.00000000    0.00000000   -0.00000000
     atom   18 type  1   force =    -0.00005870    0.00005870   -0.00000000
     atom   19 type  1   force =    -0.00005870   -0.00000000    0.00005870
     atom   20 type  1   force =    -0.00000000    0.00012825    0.00012825
     atom   21 type  1   force =     0.00000000    0.00000000    0.00000000
     atom   22 type  1   force =    -0.00012825    0.00012825   -0.00000000
     atom   23 type  1   force =    -0.00005870    0.00000000   -0.00005870
     atom   24 type  1   force =     0.00000000    0.00012825   -0.00012825
     atom   25 type  1   force =     0.00000000    0.00000000    0.00000000
     atom   26 type  1   force =    -0.00005870   -0.00005870    0.00000000
     atom   27 type  1   force =    -0.00012825   -0.00000000    0.00012825
     atom   28 type  1   force =    -0.00000000   -0.00012825    0.00012825
     atom   29 type  1   force =     0.00000000    0.00000000    0.00000000
     atom   30 type  1   force =    -0.00012825   -0.00012825    0.00000000
     atom   31 type  1   force =    -0.00012825    0.00000000   -0.00012825
     atom   32 type  1   force =    -0.00000000   -0.00012825   -0.00012825

     Total force =     0.000691     Total SCF correction =     0.005776
     SCF correction compared to forces is large: reduce conv_thr to get better values

     Computing stress (Cartesian axis) and pressure

          total   stress  (Ry/bohr**3)                   (kbar)     P=    9.88
   0.00006718   0.00000000   0.00000000          9.88      0.00      0.00
   0.00000000   0.00006718   0.00000000          0.00      9.88      0.00
   0.00000000   0.00000000   0.00006718          0.00      0.00      9.88

     Writing output data file DrvxAtvSfmjgVSNk.save/

     General routines

     Parallel routines

   This run was terminated on:   8:44:24  11Nov2020

   JOB DONE.