     Program PWSCF v.6.3 starts on 11Nov2020 at  9:37:45

     R & G space division:  proc/nbgrp/npool/nimage =      20
     Reading input from wd/eos/eos_007.in
Warning: card &IONS ignored
Warning: card ION_DYNAMICS = 'BFGS', ignored
Warning: card / ignored
Warning: card &CELL ignored
Warning: card CELL_DYNAMICS = 'BFGS', ignored
Warning: card CELL_FACTOR = 2.0, ignored
Warning: card PRESS = 0.0, ignored
Warning: card / ignored

     Current dimensions of program PWSCF are:
     Max number of different atomic species (ntypx) = 10
     Max number of k-points (npk) =  40000
     Max angular momentum in pseudopotentials (lmaxx) =  3
               file Pd.pbe-spn-kjpaw_psl.1.0.0.UPF: wavefunction(s)  4S 5S 4D renormalized

     Subspace diagonalization in iterative solution of the eigenvalue problem:
     a serial algorithm will be used

     bravais-lattice index     =            0
     lattice parameter (alat)  =      14.8394  a.u.
     unit-cell volume          =    3317.0266 (a.u.)^3
     number of atoms/cell      =           32
     number of atomic types    =            1
     number of electrons       =       576.00
     number of Kohn-Sham states=          346
     kinetic-energy cutoff     =      71.0000  Ry
     charge density cutoff     =     430.0000  Ry
     convergence threshold     =      1.0E-06
     mixing beta               =       0.1000
     number of iterations used =           10  plain     mixing
     Exchange-correlation      = SLA PW PBX PBC ( 1  4  3  4 0 0)

     celldm(1)=  14.839420  celldm(2)=   0.000000  celldm(3)=   0.000000
     celldm(4)=   0.000000  celldm(5)=   0.000000  celldm(6)=   0.000000

     crystal axes: (cart. coord. in units of alat)
               a(1) = (   1.005000   0.000000   0.000000 )
               a(2) = (   0.000000   1.005000   0.000000 )
               a(3) = (   0.000000   0.000000   1.005000 )

     reciprocal axes: (cart. coord. in units 2 pi/alat)
               b(1) = (  0.995025  0.000000  0.000000 )
               b(2) = (  0.000000  0.995025  0.000000 )
               b(3) = (  0.000000  0.000000  0.995025 )

     PseudoPot. # 1 for Pd read from file:
     /rds/homes/b/bxp912/pp/Pd.pbe-spn-kjpaw_psl.1.0.0.UPF
     MD5 check sum: 790f2ebce206edfd9790dcb9844eca51
     Pseudo is Projector augmented-wave + core cor, Zval = 18.0
     Generated using "atomic" code by A. Dal Corso v.6.3
     Shape of augmentation charge: PSQ
     Using radial grid of 1235 points,  6 beta functions with:
                l(1) =   0
                l(2) =   0
                l(3) =   1
                l(4) =   1
                l(5) =   2
                l(6) =   2
     Q(r) pseudized with 0 coefficients

     atomic species   valence    mass     pseudopotential
        Pd            18.00   106.42000     Pd( 1.00)

     48 Sym. Ops., with inversion, found

   Cartesian axes

     site n.     atom                  positions (alat units)
         1           Pd  tau(   1) = (   0.0000000   0.0000000   0.0000000  )
         2           Pd  tau(   2) = (   0.2512545   0.2512545   0.0000000  )
         3           Pd  tau(   3) = (   0.2512545   0.0000000   0.2512540  )
         4           Pd  tau(   4) = (   0.0000000   0.2512545   0.2512540  )
         5           Pd  tau(   5) = (   0.0000000   0.0000000   0.5024990  )
         6           Pd  tau(   6) = (   0.2512617   0.2512617   0.5024990  )
         7           Pd  tau(   7) = (   0.2512545   0.0000000   0.7537450  )
         8           Pd  tau(   8) = (   0.0000000   0.2512545   0.7537450  )
         9           Pd  tau(   9) = (   0.0000000   0.5024998   0.0000000  )
        10           Pd  tau(  10) = (   0.2512545   0.7537452   0.0000000  )
        11           Pd  tau(  11) = (   0.2512617   0.5024998   0.2512610  )
        12           Pd  tau(  12) = (   0.0000000   0.7537452   0.2512540  )
        13           Pd  tau(  13) = (   0.0000000   0.5024998   0.5024990  )
        14           Pd  tau(  14) = (   0.2512617   0.7537380   0.5024990  )
        15           Pd  tau(  15) = (   0.2512617   0.5024998   0.7537380  )
        16           Pd  tau(  16) = (   0.0000000   0.7537452   0.7537450  )
        17           Pd  tau(  17) = (   0.5024998   0.0000000   0.0000000  )
        18           Pd  tau(  18) = (   0.7537452   0.2512545   0.0000000  )
        19           Pd  tau(  19) = (   0.7537452   0.0000000   0.2512540  )
        20           Pd  tau(  20) = (   0.5024998   0.2512617   0.2512610  )
        21           Pd  tau(  21) = (   0.5024998   0.0000000   0.5024990  )
        22           Pd  tau(  22) = (   0.7537380   0.2512617   0.5024990  )
        23           Pd  tau(  23) = (   0.7537452   0.0000000   0.7537450  )
        24           Pd  tau(  24) = (   0.5024998   0.2512617   0.7537380  )
        25           Pd  tau(  25) = (   0.5024998   0.5024998   0.0000000  )
        26           Pd  tau(  26) = (   0.7537452   0.7537452   0.0000000  )
        27           Pd  tau(  27) = (   0.7537380   0.5024998   0.2512610  )
        28           Pd  tau(  28) = (   0.5024998   0.7537380   0.2512610  )
        29           Pd  tau(  29) = (   0.5024998   0.5024998   0.5024990  )
        30           Pd  tau(  30) = (   0.7537380   0.7537380   0.5024990  )
        31           Pd  tau(  31) = (   0.7537380   0.5024998   0.7537380  )
        32           Pd  tau(  32) = (   0.5024998   0.7537380   0.7537380  )

     number of k points=    35  Marzari-Vanderbilt smearing, width (Ry)=  0.0400
                       cart. coord. in units 2pi/alat
        k(    1) = (   0.0552792   0.0552792   0.0552792), wk =   0.0219479
        k(    2) = (   0.0552792   0.0552792   0.1658375), wk =   0.0658436
        k(    3) = (   0.0552792   0.0552792   0.2763958), wk =   0.0658436
        k(    4) = (   0.0552792   0.0552792   0.3869541), wk =   0.0658436
        k(    5) = (   0.0552792   0.0552792  -0.4975124), wk =   0.0329218
        k(    6) = (   0.0552792   0.1658375   0.1658375), wk =   0.0658436
        k(    7) = (   0.0552792   0.1658375   0.2763958), wk =   0.1316872
        k(    8) = (   0.0552792   0.1658375   0.3869541), wk =   0.1316872
        k(    9) = (   0.0552792   0.1658375  -0.4975124), wk =   0.0658436
        k(   10) = (   0.0552792   0.2763958   0.2763958), wk =   0.0658436
        k(   11) = (   0.0552792   0.2763958   0.3869541), wk =   0.1316872
        k(   12) = (   0.0552792   0.2763958  -0.4975124), wk =   0.0658436
        k(   13) = (   0.0552792   0.3869541   0.3869541), wk =   0.0658436
        k(   14) = (   0.0552792   0.3869541  -0.4975124), wk =   0.0658436
        k(   15) = (   0.0552792  -0.4975124  -0.4975124), wk =   0.0164609
        k(   16) = (   0.1658375   0.1658375   0.1658375), wk =   0.0219479
        k(   17) = (   0.1658375   0.1658375   0.2763958), wk =   0.0658436
        k(   18) = (   0.1658375   0.1658375   0.3869541), wk =   0.0658436
        k(   19) = (   0.1658375   0.1658375  -0.4975124), wk =   0.0329218
        k(   20) = (   0.1658375   0.2763958   0.2763958), wk =   0.0658436
        k(   21) = (   0.1658375   0.2763958   0.3869541), wk =   0.1316872
        k(   22) = (   0.1658375   0.2763958  -0.4975124), wk =   0.0658436
        k(   23) = (   0.1658375   0.3869541   0.3869541), wk =   0.0658436
        k(   24) = (   0.1658375   0.3869541  -0.4975124), wk =   0.0658436
        k(   25) = (   0.1658375  -0.4975124  -0.4975124), wk =   0.0164609
        k(   26) = (   0.2763958   0.2763958   0.2763958), wk =   0.0219479
        k(   27) = (   0.2763958   0.2763958   0.3869541), wk =   0.0658436
        k(   28) = (   0.2763958   0.2763958  -0.4975124), wk =   0.0329218
        k(   29) = (   0.2763958   0.3869541   0.3869541), wk =   0.0658436
        k(   30) = (   0.2763958   0.3869541  -0.4975124), wk =   0.0658436
        k(   31) = (   0.2763958  -0.4975124  -0.4975124), wk =   0.0164609
        k(   32) = (   0.3869541   0.3869541   0.3869541), wk =   0.0219479
        k(   33) = (   0.3869541   0.3869541  -0.4975124), wk =   0.0329218
        k(   34) = (   0.3869541  -0.4975124  -0.4975124), wk =   0.0164609
        k(   35) = (  -0.4975124  -0.4975124  -0.4975124), wk =   0.0027435

     Check: negative/imaginary core charge=   -0.000002    0.000000

     Initial potential from superposition of free atoms

     starting charge  575.98776, renormalised to  576.00000
     Starting wfcs are  320 randomized atomic wfcs +   26 random wfcs
     Checking if some PAW data can be deallocated...

     Self-consistent Calculation

     iteration #  1     ecut=    71.00 Ry     beta= 0.10
     Davidson diagonalization with overlap
     ethr =  1.00E-02,  avg # of iterations =  3.1

     Threshold (ethr) on eigenvalues was too large:
     Diagonalizing with lowered threshold

     Davidson diagonalization with overlap
     ethr =  9.17E-05,  avg # of iterations =  3.0

     total energy              =  -16385.02620270 Ry
     Harris-Foulkes estimate   =  -16385.10108881 Ry
     estimated scf accuracy    <       0.52189745 Ry

[...]

     iteration #  4     ecut=    71.00 Ry     beta= 0.10
     Davidson diagonalization with overlap
     c_bands:  1 eigenvalues not converged
     ethr =  1.06E-05,  avg # of iterations =  2.3

[...]

     total energy              =  -16384.95918564 Ry
     Harris-Foulkes estimate   =  -16384.95918339 Ry
     estimated scf accuracy    <       0.00000101 Ry

     iteration # 11     ecut=    71.00 Ry     beta= 0.10
     Davidson diagonalization with overlap
     ethr =  1.75E-10,  avg # of iterations =  1.6

     End of self-consistent calculation

          k = 0.0553 0.0553 0.0553 ( 33458 PWs)   bands (ev):

   -65.2120 -65.1849 -65.1848 -65.1848 -65.1797 -65.1796 -65.1796 -65.1701
   -65.1700 -65.1700 -65.1679 -65.1676 -65.1674 -65.1674 -65.1672 -65.1672
   -65.1671 -65.1669 -65.1669 -65.1664 -65.1648 -65.1648 -65.1647 -65.1532
   -65.1527 -65.1527 -65.1525 -65.1524 -65.1523 -65.1522 -65.1522 -65.1517
   -31.0868 -31.0867 -31.0867 -31.0853 -31.0672 -31.0672 -31.0672 -30.9936
   -30.9935 -30.9935 -30.9894 -30.9894 -30.9894 -30.9894 -30.9894 -30.9893
   -30.9820 -30.9819 -30.9819 -30.9771 -30.9771 -30.9771 -30.9770 -30.9770
   -30.9770 -30.9594 -30.9594 -30.9594 -30.9594 -30.9594 -30.9594 -30.9204
   -30.9204 -30.9204 -30.8975 -30.8975 -30.8975 -30.8918 -30.8918 -30.8918
   -30.8829 -30.8828 -30.8828 -30.8828 -30.8828 -30.8828 -30.8686 -30.8686
   -30.8686 -30.8680 -30.8677 -30.8677 -30.8676 -30.8676 -30.8676 -30.8671
   -30.8671 -30.8669 -30.8656 -30.8656 -30.8655 -30.8057 -30.8057 -30.8057
   -30.8054 -30.8054 -30.8053 -30.7939 -30.7939 -30.7939 -30.7938 -30.7938
   -30.7938 -30.7908 -30.7907 -30.7907 -30.7869 -30.7865 -30.7864 -30.7859
   -30.7859 -30.7858 -30.7858 -30.7857 -30.7855 -30.7852 -30.7852 -30.7850
   -30.7842 -30.7842 -30.7791 -30.7791 -30.7791 -30.7361 -30.7338 -30.7338
    12.0193  13.7851  13.7851  13.7851  13.8440  13.8576  13.8576  13.8576
    14.0305  14.0306  14.0306  14.0538  14.0538  14.0538  14.2276  14.2277
    14.2277  14.7782  14.7782  14.7782  14.7782  14.7782  14.7784  14.9267
    14.9268  14.9268  15.0652  15.0653  15.0653  15.1091  15.1092  15.1092
    15.1479  15.1479  15.1479  15.1480  15.1480  15.1480  15.1513  15.1514
    15.1514  15.4893  15.4893  15.4893  15.4893  15.4893  15.4893  15.5940
    15.5941  15.5941  15.6158  15.6158  15.6158  15.6159  15.6159  15.6159
    15.6718  15.6719  15.6719  15.8373  15.8373  15.8373  15.8374  15.8374
    15.8374  15.9425  15.9426  15.9426  15.9472  15.9472  15.9472  15.9473
    15.9473  15.9474  16.0525  16.0526  16.0526  16.1132  16.1132  16.1132
    16.1335  16.1335  16.1439  16.1439  16.1439  16.1602  16.1793  16.1793
    16.9595  16.9596  16.9596  17.0191  17.0191  17.0191  17.0901  17.0902
    17.0902  17.0902  17.0902  17.0903  17.0960  17.0961  17.0962  17.1435
    17.1436  17.1437  17.2426  17.2426  17.2427  17.3589  17.3590  17.3590
    17.4808  17.4808  17.4810  17.5370  17.5370  17.5371  17.6101  17.6103
    17.6103  17.6103  17.6103  17.6103  17.6284  17.6284  17.6284  17.6726
    17.6726  17.6814  17.6814  17.6814  17.6814  17.6814  17.6815  17.7879
    17.7879  17.7880  18.1650  18.1650  18.1650  18.2642  18.2642  18.2643
    18.6419  18.6419  18.6419  18.7588  18.7588  18.7588  18.7850  18.7850
    18.8047  18.8047  18.8047  19.0297  19.0297  19.0297  19.0818  19.0818
    19.0819  19.0819  19.0819  19.0819  19.0849  19.0849  19.0850  19.7891
    20.0870  20.0870  20.0870  20.5623  20.5623  20.5623  21.0665  21.0665
    21.0665  21.0665  21.0665  21.0666  21.5901  21.5902  21.5902  22.2078
    22.2078  22.2078  25.8511  25.8511  25.8511  26.0079  27.0340  27.0340
    27.0341  27.0341  27.0341  27.0342  27.7198  27.7199  27.7199  27.7200
    27.7200  27.7200  29.0976  29.0976  29.0976  29.0976  29.0976  29.0977
    29.2361  29.2361  29.2361  30.2206  30.2665  30.2667  30.2667  30.2667
    30.2667  30.2668

[...]

          k = 0.3870-0.4975-0.4975 ( 33520 PWs)   bands (ev):

[...]

          k =-0.4975-0.4975-0.4975 ( 33552 PWs)   bands (ev):

   -65.1905 -65.1902 -65.1902 -65.1900 -65.1897 -65.1894 -65.1894 -65.1892
   -65.1608 -65.1606 -65.1606 -65.1604 -65.1603 -65.1603 -65.1601 -65.1601
   -65.1600 -65.1600 -65.1599 -65.1599 -65.1598 -65.1597 -65.1596 -65.1595
   -65.1595 -65.1594 -65.1593 -65.1592 -65.1592 -65.1590 -65.1589 -65.1588
   -31.0290 -31.0289 -31.0289 -31.0288 -31.0287 -31.0286 -31.0285 -31.0284
   -31.0284 -31.0284 -31.0284 -31.0284 -31.0282 -31.0282 -31.0282 -31.0282
   -31.0281 -31.0281 -31.0280 -31.0279 -31.0277 -31.0277 -31.0277 -31.0276
   -30.9122 -30.9122 -30.9122 -30.9121 -30.9120 -30.9119 -30.9119 -30.9118
   -30.8772 -30.8772 -30.8771 -30.8771 -30.8771 -30.8770 -30.8770 -30.8770
   -30.8770 -30.8769 -30.8769 -30.8769 -30.8768 -30.8768 -30.8768 -30.8768
   -30.8768 -30.8767 -30.8767 -30.8767 -30.8767 -30.8766 -30.8766 -30.8765
   -30.8261 -30.8260 -30.8260 -30.8260 -30.8259 -30.8259 -30.8258 -30.8258
   -30.8258 -30.8258 -30.8257 -30.8256 -30.8256 -30.8255 -30.8254 -30.8254
   -30.8254 -30.8254 -30.8253 -30.8253 -30.8252 -30.8252 -30.8252 -30.8252
   -30.7593 -30.7593 -30.7592 -30.7592 -30.7591 -30.7590 -30.7590 -30.7589
   -30.7588 -30.7587 -30.7587 -30.7586 -30.7585 -30.7584 -30.7584 -30.7584
    13.6398  13.6403  13.6403  13.6405  13.6406  13.6410  13.6410  13.6413
    14.4929  14.4929  14.4930  14.4930  14.4930  14.4931  14.4931  14.4931
    14.4932  14.4932  14.4933  14.4933  14.4933  14.4935  14.4935  14.4935
    14.4936  14.4936  14.4937  14.4937  14.4937  14.4937  14.4937  14.4938
    15.2355  15.2356  15.2358  15.2358  15.2359  15.2359  15.2359  15.2360
    15.2360  15.2361  15.2362  15.2362  15.2362  15.2363  15.2363  15.2364
    15.2364  15.2366  15.2366  15.2367  15.2367  15.2367  15.2367  15.2368
    16.1444  16.1447  16.1447  16.1447  16.1447  16.1448  16.1448  16.1448
    16.4455  16.4456  16.4456  16.4456  16.4456  16.4457  16.4457  16.4458
    16.4459  16.4459  16.4460  16.4460  16.4460  16.4461  16.4461  16.4462
    16.6276  16.6277  16.6277  16.6278  16.6278  16.6278  16.6278  16.6279
    16.6279  16.6279  16.6279  16.6280  16.6280  16.6280  16.6281  16.6281
    16.6281  16.6282  16.6282  16.6282  16.6282  16.6283  16.6283  16.6285
    17.3292  17.3293  17.3294  17.3294  17.3295  17.3295  17.3296  17.3296
    17.3296  17.3296  17.3297  17.3298  17.3298  17.3298  17.3299  17.3299
    17.3300  17.3300  17.3300  17.3301  17.3301  17.3301  17.3302  17.3304
    17.8222  17.8223  17.8223  17.8224  17.8224  17.8225  17.8225  17.8226
    17.8227  17.8227  17.8228  17.8228  17.8229  17.8230  17.8231  17.8231
    18.8865  18.8866  18.8866  18.8866  18.8867  18.8867  18.8868  18.8868
    18.8868  18.8869  18.8869  18.8869  18.8869  18.8870  18.8870  18.8870
    18.8870  18.8871  18.8871  18.8872  18.8872  18.8873  18.8873  18.8873
    22.4270  22.4271  22.4272  22.4272  22.4273  22.4273  22.4275  22.4275
    22.4275  22.4275  22.4276  22.4276  22.4277  22.4277  22.4278  22.4278
    22.4279  22.4279  22.4279  22.4281  22.4281  22.4282  22.4282  22.4282
    27.8151  27.8152  27.8152  27.8153  27.8153  27.8153  27.8154  27.8154
    27.8154  27.8155  27.8155  27.8157  27.8159  27.8159  27.8159  27.8160
    27.8160  27.8160  27.8161  27.8161  27.8162  27.8162  27.8163  27.8163
    33.0169  33.0187

     the Fermi energy is    18.9115 ev

!    total energy              =  -16384.95919646 Ry
     Harris-Foulkes estimate   =  -16384.95918569 Ry
     estimated scf accuracy    <       0.00000053 Ry

     total all-electron energy =   -322945.812904 Ry

     The total energy is the sum of the following terms:

     one-electron contribution =   -2534.26613086 Ry
     hartree contribution      =    1677.68697988 Ry
     xc contribution           =    -986.18303061 Ry
     ewald contribution        =   -6374.82510521 Ry
     one-center paw contrib.   =   -8167.40986787 Ry
     smearing contrib. (-TS)   =       0.03795821 Ry

     convergence has been achieved in  11 iterations

     Forces acting on atoms (cartesian axes, Ry/au):

     atom    1 type  1   force =     0.00000000    0.00000000    0.00000000
     atom    2 type  1   force =     0.00006048    0.00006048    0.00000000
     atom    3 type  1   force =     0.00006048   -0.00000000    0.00006048
     atom    4 type  1   force =     0.00000000    0.00006048    0.00006048
     atom    5 type  1   force =     0.00000000    0.00000000    0.00000000
     atom    6 type  1   force =     0.00015819    0.00015819    0.00000000
     atom    7 type  1   force =     0.00006048    0.00000000   -0.00006048
     atom    8 type  1   force =     0.00000000    0.00006048   -0.00006048
     atom    9 type  1   force =     0.00000000    0.00000000    0.00000000
     atom   10 type  1   force =     0.00006048   -0.00006048   -0.00000000
     atom   11 type  1   force =     0.00015819    0.00000000    0.00015819
     atom   12 type  1   force =     0.00000000   -0.00006048    0.00006048
     atom   13 type  1   force =     0.00000000    0.00000000    0.00000000
     atom   14 type  1   force =     0.00015819   -0.00015819    0.00000000
     atom   15 type  1   force =     0.00015819    0.00000000   -0.00015819
     atom   16 type  1   force =    -0.00000000   -0.00006048   -0.00006048
     atom   17 type  1   force =     0.00000000    0.00000000    0.00000000
     atom   18 type  1   force =    -0.00006048    0.00006048    0.00000000
     atom   19 type  1   force =    -0.00006048    0.00000000    0.00006048
     atom   20 type  1   force =     0.00000000    0.00015819    0.00015819
     atom   21 type  1   force =     0.00000000   -0.00000000    0.00000000
     atom   22 type  1   force =    -0.00015819    0.00015819    0.00000000
     atom   23 type  1   force =    -0.00006048   -0.00000000   -0.00006048
     atom   24 type  1   force =    -0.00000000    0.00015819   -0.00015819
     atom   25 type  1   force =     0.00000000    0.00000000    0.00000000
     atom   26 type  1   force =    -0.00006048   -0.00006048    0.00000000
     atom   27 type  1   force =    -0.00015819    0.00000000    0.00015819
     atom   28 type  1   force =    -0.00000000   -0.00015819    0.00015819
     atom   29 type  1   force =     0.00000000    0.00000000    0.00000000
     atom   30 type  1   force =    -0.00015819   -0.00015819    0.00000000
     atom   31 type  1   force =    -0.00015819   -0.00000000   -0.00015819
     atom   32 type  1   force =    -0.00000000   -0.00015819   -0.00015819

     Total force =     0.000830     Total SCF correction =     0.004201
     SCF correction compared to forces is large: reduce conv_thr to get better values

     Computing stress (Cartesian axis) and pressure

          total   stress  (Ry/bohr**3)                   (kbar)     P=  -24.73
  -0.00016810   0.00000000   0.00000000        -24.73      0.00      0.00
   0.00000000  -0.00016810   0.00000000          0.00    -24.73      0.00
   0.00000000   0.00000000  -0.00016810          0.00      0.00    -24.73

     Writing output data file kpvUwOtIFWotxWGk.save/

     General routines

     Parallel routines

   This run was terminated on:   9:59:13  11Nov2020

   JOB DONE.