     Program PWSCF v.6.3 starts on 11Nov2020 at  8: 7:22

     R & G space division:  proc/nbgrp/npool/nimage =      20
     Reading input from wd/eos/eos_002.in
Warning: card &IONS ignored
Warning: card ION_DYNAMICS = 'BFGS', ignored
Warning: card / ignored
Warning: card &CELL ignored
Warning: card CELL_DYNAMICS = 'BFGS', ignored
Warning: card CELL_FACTOR = 2.0, ignored
Warning: card PRESS = 0.0, ignored
Warning: card / ignored

     Current dimensions of program PWSCF are:
     Max number of different atomic species (ntypx) = 10
     Max number of k-points (npk) =  40000
     Max angular momentum in pseudopotentials (lmaxx) =  3
               file Pd.pbe-spn-kjpaw_psl.1.0.0.UPF: wavefunction(s)  4S 5S 4D renormalized

     Subspace diagonalization in iterative solution of the eigenvalue problem:
     a serial algorithm will be used

     bravais-lattice index     =            0
     lattice parameter (alat)  =      14.8394  a.u.
     unit-cell volume          =    3235.1958 (a.u.)^3
     number of atoms/cell      =           32
     number of atomic types    =            1
     number of electrons       =       576.00
     number of Kohn-Sham states=          346
     kinetic-energy cutoff     =      71.0000  Ry
     charge density cutoff     =     430.0000  Ry
     convergence threshold     =      1.0E-06
     mixing beta               =       0.1000
     number of iterations used =           10  plain     mixing
     Exchange-correlation      = SLA PW PBX PBC ( 1  4  3  4 0 0)

     celldm(1)=  14.839420  celldm(2)=   0.000000  celldm(3)=   0.000000
     celldm(4)=   0.000000  celldm(5)=   0.000000  celldm(6)=   0.000000

     crystal axes: (cart. coord. in units of alat)
               a(1) = (   0.996667   0.000000   0.000000 )
               a(2) = (   0.000000   0.996667   0.000000 )
               a(3) = (   0.000000   0.000000   0.996667 )

     reciprocal axes: (cart. coord. in units 2 pi/alat)
               b(1) = (  1.003344  0.000000  0.000000 )
               b(2) = (  0.000000  1.003344  0.000000 )
               b(3) = (  0.000000  0.000000  1.003344 )

     PseudoPot. # 1 for Pd read from file:
     /rds/homes/b/bxp912/pp/Pd.pbe-spn-kjpaw_psl.1.0.0.UPF
     MD5 check sum: 790f2ebce206edfd9790dcb9844eca51
     Pseudo is Projector augmented-wave + core cor, Zval = 18.0
     Generated using "atomic" code by A. Dal Corso v.6.3
     Shape of augmentation charge: PSQ
     Using radial grid of 1235 points,  6 beta functions with:
                l(1) =   0
                l(2) =   0
                l(3) =   1
                l(4) =   1
                l(5) =   2
                l(6) =   2
     Q(r) pseudized with 0 coefficients

     atomic species   valence    mass     pseudopotential
        Pd            18.00   106.42000     Pd( 1.00)

     48 Sym. Ops., with inversion, found

   Cartesian axes

     site n.     atom                  positions (alat units)
         1           Pd  tau(   1) = (   0.0000000   0.0000000   0.0000000  )
         2           Pd  tau(   2) = (   0.2491711   0.2491711   0.0000000  )
         3           Pd  tau(   3) = (   0.2491711   0.0000000   0.2491706  )
         4           Pd  tau(   4) = (   0.0000000   0.2491711   0.2491706  )
         5           Pd  tau(   5) = (   0.0000000   0.0000000   0.4983323  )
         6           Pd  tau(   6) = (   0.2491782   0.2491782   0.4983323  )
         7           Pd  tau(   7) = (   0.2491711   0.0000000   0.7474951  )
         8           Pd  tau(   8) = (   0.0000000   0.2491711   0.7474951  )
         9           Pd  tau(   9) = (   0.0000000   0.4983331   0.0000000  )
        10           Pd  tau(  10) = (   0.2491711   0.7474953   0.0000000  )
        11           Pd  tau(  11) = (   0.2491782   0.4983331   0.2491775  )
        12           Pd  tau(  12) = (   0.0000000   0.7474953   0.2491706  )
        13           Pd  tau(  13) = (   0.0000000   0.4983331   0.4983323  )
        14           Pd  tau(  14) = (   0.2491782   0.7474881   0.4983323  )
        15           Pd  tau(  15) = (   0.2491782   0.4983331   0.7474881  )
        16           Pd  tau(  16) = (   0.0000000   0.7474953   0.7474951  )
        17           Pd  tau(  17) = (   0.4983331   0.0000000   0.0000000  )
        18           Pd  tau(  18) = (   0.7474953   0.2491711   0.0000000  )
        19           Pd  tau(  19) = (   0.7474953   0.0000000   0.2491706  )
        20           Pd  tau(  20) = (   0.4983331   0.2491782   0.2491775  )
        21           Pd  tau(  21) = (   0.4983331   0.0000000   0.4983323  )
        22           Pd  tau(  22) = (   0.7474881   0.2491782   0.4983323  )
        23           Pd  tau(  23) = (   0.7474953   0.0000000   0.7474951  )
        24           Pd  tau(  24) = (   0.4983331   0.2491782   0.7474881  )
        25           Pd  tau(  25) = (   0.4983331   0.4983331   0.0000000  )
        26           Pd  tau(  26) = (   0.7474953   0.7474953   0.0000000  )
        27           Pd  tau(  27) = (   0.7474881   0.4983331   0.2491775  )
        28           Pd  tau(  28) = (   0.4983331   0.7474881   0.2491775  )
        29           Pd  tau(  29) = (   0.4983331   0.4983331   0.4983323  )
        30           Pd  tau(  30) = (   0.7474881   0.7474881   0.4983323  )
        31           Pd  tau(  31) = (   0.7474881   0.4983331   0.7474881  )
        32           Pd  tau(  32) = (   0.4983331   0.7474881   0.7474881  )

     number of k points=    35  Marzari-Vanderbilt smearing, width (Ry)=  0.0400
                       cart. coord. in units 2pi/alat
        k(    1) = (   0.0557414   0.0557414   0.0557414), wk =   0.0219479
        k(    2) = (   0.0557414   0.0557414   0.1672241), wk =   0.0658436
        k(    3) = (   0.0557414   0.0557414   0.2787068), wk =   0.0658436
        k(    4) = (   0.0557414   0.0557414   0.3901895), wk =   0.0658436
        k(    5) = (   0.0557414   0.0557414  -0.5016722), wk =   0.0329218
        k(    6) = (   0.0557414   0.1672241   0.1672241), wk =   0.0658436
        k(    7) = (   0.0557414   0.1672241   0.2787068), wk =   0.1316872
        k(    8) = (   0.0557414   0.1672241   0.3901895), wk =   0.1316872
        k(    9) = (   0.0557414   0.1672241  -0.5016722), wk =   0.0658436
        k(   10) = (   0.0557414   0.2787068   0.2787068), wk =   0.0658436
        k(   11) = (   0.0557414   0.2787068   0.3901895), wk =   0.1316872
        k(   12) = (   0.0557414   0.2787068  -0.5016722), wk =   0.0658436
        k(   13) = (   0.0557414   0.3901895   0.3901895), wk =   0.0658436
        k(   14) = (   0.0557414   0.3901895  -0.5016722), wk =   0.0658436
        k(   15) = (   0.0557414  -0.5016722  -0.5016722), wk =   0.0164609
        k(   16) = (   0.1672241   0.1672241   0.1672241), wk =   0.0219479
        k(   17) = (   0.1672241   0.1672241   0.2787068), wk =   0.0658436
        k(   18) = (   0.1672241   0.1672241   0.3901895), wk =   0.0658436
        k(   19) = (   0.1672241   0.1672241  -0.5016722), wk =   0.0329218
        k(   20) = (   0.1672241   0.2787068   0.2787068), wk =   0.0658436
        k(   21) = (   0.1672241   0.2787068   0.3901895), wk =   0.1316872
        k(   22) = (   0.1672241   0.2787068  -0.5016722), wk =   0.0658436
        k(   23) = (   0.1672241   0.3901895   0.3901895), wk =   0.0658436
        k(   24) = (   0.1672241   0.3901895  -0.5016722), wk =   0.0658436
        k(   25) = (   0.1672241  -0.5016722  -0.5016722), wk =   0.0164609
        k(   26) = (   0.2787068   0.2787068   0.2787068), wk =   0.0219479
        k(   27) = (   0.2787068   0.2787068   0.3901895), wk =   0.0658436
        k(   28) = (   0.2787068   0.2787068  -0.5016722), wk =   0.0329218
        k(   29) = (   0.2787068   0.3901895   0.3901895), wk =   0.0658436
        k(   30) = (   0.2787068   0.3901895  -0.5016722), wk =   0.0658436
        k(   31) = (   0.2787068  -0.5016722  -0.5016722), wk =   0.0164609
        k(   32) = (   0.3901895   0.3901895   0.3901895), wk =   0.0219479
        k(   33) = (   0.3901895   0.3901895  -0.5016722), wk =   0.0329218
        k(   34) = (   0.3901895  -0.5016722  -0.5016722), wk =   0.0164609
        k(   35) = (  -0.5016722  -0.5016722  -0.5016722), wk =   0.0027435

     Check: negative/imaginary core charge=   -0.000002    0.000000

     Initial potential from superposition of free atoms

     starting charge  575.98776, renormalised to  576.00000
     Starting wfcs are  320 randomized atomic wfcs +   26 random wfcs
     Checking if some PAW data can be deallocated...

     Self-consistent Calculation

     iteration #  1     ecut=    71.00 Ry     beta= 0.10
     Davidson diagonalization with overlap
     ethr =  1.00E-02,  avg # of iterations =  3.0

     Threshold (ethr) on eigenvalues was too large:
     Diagonalizing with lowered threshold

     Davidson diagonalization with overlap
     ethr =  7.76E-05,  avg # of iterations =  3.3

     total energy              =  -16385.01104781 Ry
     Harris-Foulkes estimate   =  -16385.07350322 Ry
     estimated scf accuracy    <       0.44168268 Ry

[...]

     total energy              =  -16384.95242847 Ry
     Harris-Foulkes estimate   =  -16384.95242513 Ry
     estimated scf accuracy    <       0.00000466 Ry

     iteration # 10     ecut=    71.00 Ry     beta= 0.10
     Davidson diagonalization with overlap
     ethr =  8.09E-10,  avg # of iterations =  1.0

     End of self-consistent calculation

          k = 0.0557 0.0557 0.0557 ( 32690 PWs)   bands (ev):

   -64.6375 -64.6071 -64.6070 -64.6070 -64.6013 -64.6011 -64.6011 -64.5905
   -64.5904 -64.5903 -64.5879 -64.5876 -64.5874 -64.5873 -64.5872 -64.5872
   -64.5871 -64.5869 -64.5868 -64.5863 -64.5845 -64.5844 -64.5844 -64.5714
   -64.5709 -64.5708 -64.5706 -64.5706 -64.5705 -64.5704 -64.5703 -64.5698
   -30.5286 -30.5286 -30.5286 -30.5273 -30.5077 -30.5077 -30.5077 -30.4271
   -30.4271 -30.4270 -30.4226 -30.4225 -30.4225 -30.4225 -30.4225 -30.4224
   -30.4145 -30.4144 -30.4144 -30.4089 -30.4089 -30.4089 -30.4088 -30.4088
   -30.4088 -30.3895 -30.3895 -30.3895 -30.3894 -30.3894 -30.3894 -30.3470
   -30.3470 -30.3470 -30.3214 -30.3214 -30.3214 -30.3150 -30.3150 -30.3150
   -30.3054 -30.3054 -30.3054 -30.3054 -30.3054 -30.3053 -30.2897 -30.2897
   -30.2897 -30.2892 -30.2889 -30.2888 -30.2888 -30.2888 -30.2888 -30.2882
   -30.2882 -30.2879 -30.2866 -30.2866 -30.2865 -30.2209 -30.2208 -30.2208
   -30.2207 -30.2207 -30.2207 -30.2080 -30.2080 -30.2079 -30.2079 -30.2078
   -30.2078 -30.2041 -30.2041 -30.2040 -30.1999 -30.1996 -30.1996 -30.1988
   -30.1988 -30.1987 -30.1987 -30.1986 -30.1985 -30.1982 -30.1982 -30.1979
   -30.1972 -30.1972 -30.1914 -30.1913 -30.1913 -30.1442 -30.1413 -30.1413
    12.4814  14.2312  14.2312  14.2312  14.3067  14.3206  14.3206  14.3206
    14.5108  14.5108  14.5108  14.5230  14.5231  14.5231  14.7164  14.7165
    14.7165  15.2582  15.2582  15.2583  15.2583  15.2583  15.2585  15.4158
    15.4159  15.4159  15.5744  15.5745  15.5745  15.6052  15.6053  15.6053
    15.6569  15.6570  15.6570  15.6570  15.6570  15.6570  15.6577  15.6578
    15.6578  16.0023  16.0024  16.0024  16.0024  16.0024  16.0024  16.1113
    16.1114  16.1114  16.1335  16.1335  16.1335  16.1336  16.1336  16.1336
    16.1909  16.1910  16.1910  16.3636  16.3636  16.3636  16.3637  16.3637
    16.3637  16.4694  16.4694  16.4695  16.4734  16.4734  16.4735  16.4735
    16.4735  16.4737  16.5827  16.5828  16.5828  16.6501  16.6501  16.6501
    16.6715  16.6715  16.6822  16.6822  16.6822  16.7013  16.7213  16.7213
    17.5300  17.5300  17.5300  17.5914  17.5914  17.5915  17.6652  17.6652
    17.6652  17.6653  17.6653  17.6653  17.6713  17.6714  17.6715  17.7201
    17.7202  17.7203  17.8265  17.8265  17.8266  17.9465  17.9467  17.9467
    18.0743  18.0743  18.0745  18.1328  18.1329  18.1330  18.2060  18.2062
    18.2062  18.2062  18.2063  18.2063  18.2259  18.2259  18.2259  18.2767
    18.2767  18.2833  18.2833  18.2833  18.2834  18.2834  18.2835  18.3944
    18.3944  18.3945  18.7893  18.7893  18.7894  18.8928  18.8928  18.8928
    19.2793  19.2793  19.2793  19.4092  19.4092  19.4092  19.4364  19.4364
    19.4570  19.4570  19.4570  19.6909  19.6909  19.6909  19.7465  19.7466
    19.7466  19.7466  19.7466  19.7466  19.7497  19.7497  19.7498  20.3861
    20.6984  20.6984  20.6984  21.2586  21.2586  21.2586  21.7730  21.7731
    21.7731  21.7731  21.7731  21.7731  22.3063  22.3063  22.3063  22.8611
    22.8611  22.8611  26.6953  26.6953  26.6953  26.8518  27.8203  27.8203
    27.8204  27.8204  27.8204  27.8205  28.5172  28.5172  28.5172  28.5174
    28.5174  28.5174  29.9548  29.9548  29.9548  29.9548  29.9548  29.9549
    30.1386  30.1386  30.1386  31.0758  31.1061  31.1061  31.1062  31.1062
    31.1062  31.1063

[...]

          k = 0.3902-0.5017-0.5017 ( 32644 PWs)   bands (ev):

[...]

          k =-0.5017-0.5017-0.5017 ( 32752 PWs)   bands (ev):

   -64.6133 -64.6130 -64.6130 -64.6128 -64.6125 -64.6122 -64.6122 -64.6120
   -64.5799 -64.5797 -64.5796 -64.5795 -64.5794 -64.5794 -64.5792 -64.5791
   -64.5791 -64.5791 -64.5790 -64.5790 -64.5789 -64.5788 -64.5786 -64.5786
   -64.5785 -64.5785 -64.5784 -64.5783 -64.5783 -64.5781 -64.5780 -64.5778
   -30.4655 -30.4655 -30.4654 -30.4654 -30.4652 -30.4651 -30.4651 -30.4650
   -30.4650 -30.4649 -30.4649 -30.4649 -30.4648 -30.4647 -30.4647 -30.4647
   -30.4646 -30.4646 -30.4645 -30.4645 -30.4643 -30.4642 -30.4642 -30.4642
   -30.3379 -30.3378 -30.3378 -30.3377 -30.3376 -30.3376 -30.3376 -30.3375
   -30.2993 -30.2992 -30.2992 -30.2991 -30.2991 -30.2991 -30.2990 -30.2990
   -30.2990 -30.2990 -30.2989 -30.2989 -30.2989 -30.2989 -30.2988 -30.2988
   -30.2988 -30.2988 -30.2987 -30.2987 -30.2987 -30.2986 -30.2986 -30.2985
   -30.2429 -30.2429 -30.2429 -30.2429 -30.2428 -30.2428 -30.2427 -30.2427
   -30.2427 -30.2427 -30.2426 -30.2425 -30.2425 -30.2424 -30.2423 -30.2423
   -30.2422 -30.2422 -30.2422 -30.2421 -30.2421 -30.2421 -30.2421 -30.2420
   -30.1699 -30.1699 -30.1698 -30.1698 -30.1697 -30.1696 -30.1696 -30.1695
   -30.1694 -30.1693 -30.1693 -30.1692 -30.1691 -30.1690 -30.1690 -30.1690
    14.1245  14.1250  14.1250  14.1252  14.1254  14.1257  14.1257  14.1261
    14.9694  14.9695  14.9695  14.9695  14.9696  14.9696  14.9696  14.9697
    14.9697  14.9697  14.9698  14.9698  14.9699  14.9700  14.9700  14.9701
    14.9701  14.9702  14.9702  14.9702  14.9702  14.9702  14.9703  14.9703
    15.7351  15.7352  15.7354  15.7354  15.7355  15.7355  15.7355  15.7356
    15.7356  15.7357  15.7358  15.7358  15.7358  15.7359  15.7359  15.7360
    15.7360  15.7362  15.7362  15.7363  15.7363  15.7363  15.7364  15.7364
    16.6832  16.6835  16.6835  16.6835  16.6835  16.6836  16.6836  16.6836
    16.9969  16.9969  16.9969  16.9970  16.9970  16.9970  16.9971  16.9972
    16.9972  16.9973  16.9973  16.9973  16.9974  16.9974  16.9975  16.9976
    17.1846  17.1847  17.1847  17.1848  17.1848  17.1848  17.1849  17.1849
    17.1850  17.1850  17.1850  17.1850  17.1851  17.1851  17.1851  17.1851
    17.1852  17.1852  17.1852  17.1853  17.1853  17.1854  17.1854  17.1855
    17.9153  17.9153  17.9154  17.9155  17.9155  17.9156  17.9157  17.9157
    17.9157  17.9157  17.9158  17.9158  17.9159  17.9159  17.9159  17.9159
    17.9160  17.9161  17.9161  17.9161  17.9162  17.9162  17.9163  17.9165
    18.4303  18.4305  18.4305  18.4306  18.4306  18.4307  18.4307  18.4308
    18.4309  18.4309  18.4310  18.4310  18.4311  18.4311  18.4313  18.4313
    19.5426  19.5426  19.5426  19.5427  19.5427  19.5428  19.5428  19.5429
    19.5429  19.5429  19.5429  19.5430  19.5430  19.5430  19.5431  19.5431
    19.5431  19.5431  19.5432  19.5433  19.5433  19.5433  19.5433  19.5434
    23.1430  23.1430  23.1431  23.1432  23.1433  23.1433  23.1435  23.1435
    23.1435  23.1436  23.1436  23.1436  23.1437  23.1437  23.1438  23.1438
    23.1439  23.1439  23.1439  23.1440  23.1441  23.1442  23.1442  23.1442
    28.6282  28.6283  28.6283  28.6284  28.6284  28.6284  28.6285  28.6285
    28.6286  28.6287  28.6287  28.6288  28.6290  28.6290  28.6291  28.6291
    28.6291  28.6291  28.6293  28.6293  28.6293  28.6294  28.6294  28.6294
    33.8790  33.8791

     the Fermi energy is    19.5614 ev

!    total energy              =  -16384.95244092 Ry
     Harris-Foulkes estimate   =  -16384.95242876 Ry
     estimated scf accuracy    <       0.00000088 Ry

     total all-electron energy =   -322945.806148 Ry

     The total energy is the sum of the following terms:

     one-electron contribution =   -2451.07476816 Ry
     hartree contribution      =    1648.41799363 Ry
     xc contribution           =    -986.76136493 Ry
     ewald contribution        =   -6428.12631846 Ry
     one-center paw contrib.   =   -8167.43757555 Ry
     smearing contrib. (-TS)   =       0.02959254 Ry

     convergence has been achieved in  10 iterations

     Forces acting on atoms (cartesian axes, Ry/au):

     atom    1 type  1   force =     0.00000000    0.00000000    0.00000000
     atom    2 type  1   force =     0.00005741    0.00005741    0.00000000
     atom    3 type  1   force =     0.00005741   -0.00000000    0.00005741
     atom    4 type  1   force =     0.00000000    0.00005741    0.00005741
     atom    5 type  1   force =     0.00000000    0.00000000    0.00000000
     atom    6 type  1   force =     0.00012906    0.00012906    0.00000000
     atom    7 type  1   force =     0.00005741   -0.00000000   -0.00005741
     atom    8 type  1   force =     0.00000000    0.00005741   -0.00005741
     atom    9 type  1   force =     0.00000000    0.00000000   -0.00000000
     atom   10 type  1   force =     0.00005741   -0.00005741    0.00000000
     atom   11 type  1   force =     0.00012906   -0.00000000    0.00012906
     atom   12 type  1   force =    -0.00000000   -0.00005741    0.00005741
     atom   13 type  1   force =     0.00000000    0.00000000   -0.00000000
     atom   14 type  1   force =     0.00012906   -0.00012906   -0.00000000
     atom   15 type  1   force =     0.00012906    0.00000000   -0.00012906
     atom   16 type  1   force =    -0.00000000   -0.00005741   -0.00005741
     atom   17 type  1   force =     0.00000000    0.00000000    0.00000000
     atom   18 type  1   force =    -0.00005741    0.00005741    0.00000000
     atom   19 type  1   force =    -0.00005741    0.00000000    0.00005741
     atom   20 type  1   force =     0.00000000    0.00012906    0.00012906
     atom   21 type  1   force =     0.00000000    0.00000000    0.00000000
     atom   22 type  1   force =    -0.00012906    0.00012906   -0.00000000
     atom   23 type  1   force =    -0.00005741    0.00000000   -0.00005741
     atom   24 type  1   force =     0.00000000    0.00012906   -0.00012906
     atom   25 type  1   force =     0.00000000   -0.00000000    0.00000000
     atom   26 type  1   force =    -0.00005741   -0.00005741   -0.00000000
     atom   27 type  1   force =    -0.00012906    0.00000000    0.00012906
     atom   28 type  1   force =     0.00000000   -0.00012906    0.00012906
     atom   29 type  1   force =     0.00000000    0.00000000    0.00000000
     atom   30 type  1   force =    -0.00012906   -0.00012906    0.00000000
     atom   31 type  1   force =    -0.00012906   -0.00000000   -0.00012906
     atom   32 type  1   force =     0.00000000   -0.00012906   -0.00012906

     Total force =     0.000692     Total SCF correction =     0.005703
     SCF correction compared to forces is large: reduce conv_thr to get better values

     Computing stress (Cartesian axis) and pressure

          total   stress  (Ry/bohr**3)                   (kbar)     P=   19.34
   0.00013148   0.00000000   0.00000000         19.34      0.00      0.00
   0.00000000   0.00013148   0.00000000          0.00     19.34      0.00
   0.00000000   0.00000000   0.00013148          0.00      0.00     19.34

     Writing output data file ncXXWuYYWyBrQivw.save/

     General routines

     Parallel routines

   This run was terminated on:   8:25:56  11Nov2020

   JOB DONE.