     Program PWSCF v.6.3 starts on 11Nov2020 at  9:20: 1

     R & G space division:  proc/nbgrp/npool/nimage =      20
     Reading input from wd/eos/eos_006.in
Warning: card &IONS ignored
Warning: card ION_DYNAMICS = 'BFGS', ignored
Warning: card / ignored
Warning: card &CELL ignored
Warning: card CELL_DYNAMICS = 'BFGS', ignored
Warning: card CELL_FACTOR = 2.0, ignored
Warning: card PRESS = 0.0, ignored
Warning: card / ignored

     Current dimensions of program PWSCF are:
     Max number of different atomic species (ntypx) = 10
     Max number of k-points (npk) =  40000
     Max angular momentum in pseudopotentials (lmaxx) =  3
               file Pd.pbe-spn-kjpaw_psl.1.0.0.UPF: wavefunction(s)  4S 5S 4D renormalized

     Subspace diagonalization in iterative solution of the eigenvalue problem:
     a serial algorithm will be used

     bravais-lattice index     =            0
     lattice parameter (alat)  =      14.8394  a.u.
     unit-cell volume          =    3300.5513 (a.u.)^3
     number of atoms/cell      =           32
     number of atomic types    =            1
     number of electrons       =       576.00
     number of Kohn-Sham states=          346
     kinetic-energy cutoff     =      71.0000  Ry
     charge density cutoff     =     430.0000  Ry
     convergence threshold     =      1.0E-06
     mixing beta               =       0.1000
     number of iterations used =           10  plain     mixing
     Exchange-correlation      = SLA PW PBX PBC ( 1  4  3  4 0 0)

     celldm(1)=  14.839420  celldm(2)=   0.000000  celldm(3)=   0.000000
     celldm(4)=   0.000000  celldm(5)=   0.000000  celldm(6)=   0.000000

     crystal axes: (cart. coord. in units of alat)
               a(1) = (   1.003333   0.000000   0.000000 )
               a(2) = (   0.000000   1.003333   0.000000 )
               a(3) = (   0.000000   0.000000   1.003333 )

     reciprocal axes: (cart. coord. in units 2 pi/alat)
               b(1) = (  0.996678  0.000000  0.000000 )
               b(2) = (  0.000000  0.996678  0.000000 )
               b(3) = (  0.000000  0.000000  0.996678 )

     PseudoPot. # 1 for Pd read from file:
     /rds/homes/b/bxp912/pp/Pd.pbe-spn-kjpaw_psl.1.0.0.UPF
     MD5 check sum: 790f2ebce206edfd9790dcb9844eca51
     Pseudo is Projector augmented-wave + core cor, Zval = 18.0
     Generated using "atomic" code by A. Dal Corso v.6.3
     Shape of augmentation charge: PSQ
     Using radial grid of 1235 points,  6 beta functions with:
                l(1) =   0
                l(2) =   0
                l(3) =   1
                l(4) =   1
                l(5) =   2
                l(6) =   2
     Q(r) pseudized with 0 coefficients

     atomic species   valence    mass     pseudopotential
        Pd            18.00   106.42000     Pd( 1.00)

     48 Sym. Ops., with inversion, found

   Cartesian axes

     site n.     atom                  positions (alat units)
         1           Pd  tau(   1) = (   0.0000000   0.0000000   0.0000000  )
         2           Pd  tau(   2) = (   0.2508378   0.2508378   0.0000000  )
         3           Pd  tau(   3) = (   0.2508378   0.0000000   0.2508373  )
         4           Pd  tau(   4) = (   0.0000000   0.2508378   0.2508373  )
         5           Pd  tau(   5) = (   0.0000000   0.0000000   0.5016657  )
         6           Pd  tau(   6) = (   0.2508450   0.2508450   0.5016657  )
         7           Pd  tau(   7) = (   0.2508378   0.0000000   0.7524950  )
         8           Pd  tau(   8) = (   0.0000000   0.2508378   0.7524950  )
         9           Pd  tau(   9) = (   0.0000000   0.5016665   0.0000000  )
        10           Pd  tau(  10) = (   0.2508378   0.7524952   0.0000000  )
        11           Pd  tau(  11) = (   0.2508450   0.5016665   0.2508443  )
        12           Pd  tau(  12) = (   0.0000000   0.7524952   0.2508373  )
        13           Pd  tau(  13) = (   0.0000000   0.5016665   0.5016657  )
        14           Pd  tau(  14) = (   0.2508450   0.7524881   0.5016657  )
        15           Pd  tau(  15) = (   0.2508450   0.5016665   0.7524881  )
        16           Pd  tau(  16) = (   0.0000000   0.7524952   0.7524950  )
        17           Pd  tau(  17) = (   0.5016665   0.0000000   0.0000000  )
        18           Pd  tau(  18) = (   0.7524952   0.2508378   0.0000000  )
        19           Pd  tau(  19) = (   0.7524952   0.0000000   0.2508373  )
        20           Pd  tau(  20) = (   0.5016665   0.2508450   0.2508443  )
        21           Pd  tau(  21) = (   0.5016665   0.0000000   0.5016657  )
        22           Pd  tau(  22) = (   0.7524881   0.2508450   0.5016657  )
        23           Pd  tau(  23) = (   0.7524952   0.0000000   0.7524950  )
        24           Pd  tau(  24) = (   0.5016665   0.2508450   0.7524881  )
        25           Pd  tau(  25) = (   0.5016665   0.5016665   0.0000000  )
        26           Pd  tau(  26) = (   0.7524952   0.7524952   0.0000000  )
        27           Pd  tau(  27) = (   0.7524881   0.5016665   0.2508443  )
        28           Pd  tau(  28) = (   0.5016665   0.7524881   0.2508443  )
        29           Pd  tau(  29) = (   0.5016665   0.5016665   0.5016657  )
        30           Pd  tau(  30) = (   0.7524881   0.7524881   0.5016657  )
        31           Pd  tau(  31) = (   0.7524881   0.5016665   0.7524881  )
        32           Pd  tau(  32) = (   0.5016665   0.7524881   0.7524881  )

     number of k points=    35  Marzari-Vanderbilt smearing, width (Ry)=  0.0400
                       cart. coord. in units 2pi/alat
        k(    1) = (   0.0553710   0.0553710   0.0553710), wk =   0.0219479
        k(    2) = (   0.0553710   0.0553710   0.1661130), wk =   0.0658436
        k(    3) = (   0.0553710   0.0553710   0.2768549), wk =   0.0658436
        k(    4) = (   0.0553710   0.0553710   0.3875969), wk =   0.0658436
        k(    5) = (   0.0553710   0.0553710  -0.4983389), wk =   0.0329218
        k(    6) = (   0.0553710   0.1661130   0.1661130), wk =   0.0658436
        k(    7) = (   0.0553710   0.1661130   0.2768549), wk =   0.1316872
        k(    8) = (   0.0553710   0.1661130   0.3875969), wk =   0.1316872
        k(    9) = (   0.0553710   0.1661130  -0.4983389), wk =   0.0658436
        k(   10) = (   0.0553710   0.2768549   0.2768549), wk =   0.0658436
        k(   11) = (   0.0553710   0.2768549   0.3875969), wk =   0.1316872
        k(   12) = (   0.0553710   0.2768549  -0.4983389), wk =   0.0658436
        k(   13) = (   0.0553710   0.3875969   0.3875969), wk =   0.0658436
        k(   14) = (   0.0553710   0.3875969  -0.4983389), wk =   0.0658436
        k(   15) = (   0.0553710  -0.4983389  -0.4983389), wk =   0.0164609
        k(   16) = (   0.1661130   0.1661130   0.1661130), wk =   0.0219479
        k(   17) = (   0.1661130   0.1661130   0.2768549), wk =   0.0658436
        k(   18) = (   0.1661130   0.1661130   0.3875969), wk =   0.0658436
        k(   19) = (   0.1661130   0.1661130  -0.4983389), wk =   0.0329218
        k(   20) = (   0.1661130   0.2768549   0.2768549), wk =   0.0658436
        k(   21) = (   0.1661130   0.2768549   0.3875969), wk =   0.1316872
        k(   22) = (   0.1661130   0.2768549  -0.4983389), wk =   0.0658436
        k(   23) = (   0.1661130   0.3875969   0.3875969), wk =   0.0658436
        k(   24) = (   0.1661130   0.3875969  -0.4983389), wk =   0.0658436
        k(   25) = (   0.1661130  -0.4983389  -0.4983389), wk =   0.0164609
        k(   26) = (   0.2768549   0.2768549   0.2768549), wk =   0.0219479
        k(   27) = (   0.2768549   0.2768549   0.3875969), wk =   0.0658436
        k(   28) = (   0.2768549   0.2768549  -0.4983389), wk =   0.0329218
        k(   29) = (   0.2768549   0.3875969   0.3875969), wk =   0.0658436
        k(   30) = (   0.2768549   0.3875969  -0.4983389), wk =   0.0658436
        k(   31) = (   0.2768549  -0.4983389  -0.4983389), wk =   0.0164609
        k(   32) = (   0.3875969   0.3875969   0.3875969), wk =   0.0219479
        k(   33) = (   0.3875969   0.3875969  -0.4983389), wk =   0.0329218
        k(   34) = (   0.3875969  -0.4983389  -0.4983389), wk =   0.0164609
        k(   35) = (  -0.4983389  -0.4983389  -0.4983389), wk =   0.0027435

     Check: negative/imaginary core charge=   -0.000002    0.000000

     Initial potential from superposition of free atoms

     starting charge  575.98776, renormalised to  576.00000
     Starting wfcs are  320 randomized atomic wfcs +   26 random wfcs
     Checking if some PAW data can be deallocated...

     Self-consistent Calculation

     iteration #  1     ecut=    71.00 Ry     beta= 0.10
     Davidson diagonalization with overlap
     ethr =  1.00E-02,  avg # of iterations =  3.1

     Threshold (ethr) on eigenvalues was too large:
     Diagonalizing with lowered threshold

     Davidson diagonalization with overlap
     ethr =  8.87E-05,  avg # of iterations =  3.0

     total energy              =  -16385.02509753 Ry
     Harris-Foulkes estimate   =  -16385.09734825 Ry
     estimated scf accuracy    <       0.50492212 Ry

[...]

     total energy              =  -16384.95981005 Ry
     Harris-Foulkes estimate   =  -16384.95980687 Ry
     estimated scf accuracy    <       0.00000762 Ry

     iteration # 10     ecut=    71.00 Ry     beta= 0.10
     Davidson diagonalization with overlap
     ethr =  1.32E-09,  avg # of iterations =  1.1

     End of self-consistent calculation

          k = 0.0554 0.0554 0.0554 ( 33329 PWs)   bands (ev):

   -65.0984 -65.0707 -65.0706 -65.0706 -65.0654 -65.0653 -65.0653 -65.0556
   -65.0555 -65.0554 -65.0533 -65.0529 -65.0528 -65.0527 -65.0526 -65.0525
   -65.0525 -65.0523 -65.0522 -65.0517 -65.0501 -65.0500 -65.0500 -65.0382
   -65.0377 -65.0377 -65.0375 -65.0374 -65.0373 -65.0372 -65.0372 -65.0367
   -30.9765 -30.9765 -30.9765 -30.9750 -30.9566 -30.9566 -30.9566 -30.8816
   -30.8815 -30.8815 -30.8773 -30.8773 -30.8773 -30.8773 -30.8773 -30.8772
   -30.8698 -30.8698 -30.8698 -30.8648 -30.8648 -30.8648 -30.8647 -30.8647
   -30.8647 -30.8468 -30.8468 -30.8468 -30.8467 -30.8467 -30.8467 -30.8071
   -30.8071 -30.8071 -30.7836 -30.7836 -30.7836 -30.7778 -30.7778 -30.7778
   -30.7688 -30.7687 -30.7687 -30.7687 -30.7687 -30.7687 -30.7542 -30.7542
   -30.7542 -30.7537 -30.7533 -30.7533 -30.7533 -30.7533 -30.7532 -30.7528
   -30.7528 -30.7525 -30.7512 -30.7512 -30.7511 -30.6902 -30.6901 -30.6901
   -30.6899 -30.6898 -30.6898 -30.6782 -30.6782 -30.6782 -30.6781 -30.6781
   -30.6780 -30.6749 -30.6749 -30.6748 -30.6709 -30.6705 -30.6705 -30.6699
   -30.6699 -30.6699 -30.6698 -30.6698 -30.6696 -30.6694 -30.6694 -30.6691
   -30.6684 -30.6684 -30.6631 -30.6631 -30.6630 -30.6190 -30.6168 -30.6168
    12.1103  13.8732  13.8732  13.8732  13.9353  13.9490  13.9490  13.9490
    14.1275  14.1277  14.1277  14.1441  14.1441  14.1441  14.3240  14.3241
    14.3241  14.8730  14.8730  14.8731  14.8731  14.8731  14.8733  15.0234
    15.0235  15.0235  15.1657  15.1657  15.1657  15.2072  15.2072  15.2072
    15.2483  15.2484  15.2484  15.2484  15.2484  15.2485  15.2512  15.2513
    15.2514  15.5906  15.5906  15.5906  15.5907  15.5907  15.5907  15.6962
    15.6963  15.6963  15.7181  15.7181  15.7181  15.7181  15.7182  15.7182
    15.7743  15.7744  15.7744  15.9412  15.9413  15.9413  15.9413  15.9413
    15.9413  16.0465  16.0466  16.0466  16.0511  16.0511  16.0512  16.0512
    16.0512  16.0514  16.1572  16.1573  16.1574  16.2192  16.2192  16.2192
    16.2398  16.2398  16.2502  16.2502  16.2503  16.2672  16.2863  16.2863
    17.0722  17.0722  17.0722  17.1321  17.1321  17.1322  17.2037  17.2038
    17.2038  17.2038  17.2038  17.2039  17.2097  17.2097  17.2098  17.2573
    17.2575  17.2575  17.3579  17.3579  17.3580  17.4749  17.4751  17.4751
    17.5980  17.5980  17.5982  17.6547  17.6547  17.6548  17.7278  17.7280
    17.7280  17.7280  17.7280  17.7280  17.7463  17.7464  17.7464  17.7919
    17.7919  17.8002  17.8002  17.8003  17.8003  17.8003  17.8004  17.9077
    17.9077  17.9078  18.2882  18.2882  18.2883  18.3883  18.3883  18.3884
    18.7677  18.7677  18.7677  18.8872  18.8872  18.8872  18.9136  18.9136
    18.9334  18.9334  18.9334  19.1602  19.1602  19.1602  19.2129  19.2130
    19.2130  19.2130  19.2130  19.2131  19.2161  19.2161  19.2162  19.9067
    20.2074  20.2074  20.2074  20.6996  20.6997  20.6997  21.2058  21.2058
    21.2058  21.2059  21.2059  21.2059  21.7313  21.7314  21.7314  22.3365
    22.3365  22.3365  26.0175  26.0175  26.0175  26.1743  27.1891  27.1891
    27.1891  27.1892  27.1892  27.1892  27.8771  27.8772  27.8772  27.8773
    27.8773  27.8773  29.2668  29.2668  29.2668  29.2668  29.2668  29.2669
    29.4142  29.4142  29.4142  30.3894  30.4322  30.4323  30.4323  30.4324
    30.4324  30.4325

[...]

          k = 0.3876-0.4983-0.4983 ( 33328 PWs)   bands (ev):

[...]

          k =-0.4983-0.4983-0.4983 ( 33168 PWs)   bands (ev):

   -65.0764 -65.0761 -65.0761 -65.0759 -65.0756 -65.0753 -65.0753 -65.0751
   -65.0460 -65.0458 -65.0457 -65.0457 -65.0455 -65.0455 -65.0454 -65.0453
   -65.0452 -65.0452 -65.0451 -65.0451 -65.0450 -65.0449 -65.0447 -65.0447
   -65.0446 -65.0446 -65.0445 -65.0444 -65.0444 -65.0442 -65.0441 -65.0440
   -30.9173 -30.9173 -30.9173 -30.9172 -30.9171 -30.9169 -30.9169 -30.9168
   -30.9168 -30.9168 -30.9168 -30.9167 -30.9166 -30.9166 -30.9165 -30.9165
   -30.9165 -30.9165 -30.9164 -30.9163 -30.9161 -30.9161 -30.9160 -30.9160
   -30.7986 -30.7985 -30.7985 -30.7984 -30.7984 -30.7983 -30.7983 -30.7982
   -30.7630 -30.7630 -30.7629 -30.7629 -30.7629 -30.7628 -30.7628 -30.7628
   -30.7627 -30.7627 -30.7627 -30.7627 -30.7626 -30.7626 -30.7626 -30.7626
   -30.7626 -30.7625 -30.7625 -30.7625 -30.7624 -30.7624 -30.7624 -30.7623
   -30.7108 -30.7107 -30.7107 -30.7107 -30.7106 -30.7106 -30.7105 -30.7105
   -30.7105 -30.7105 -30.7104 -30.7103 -30.7103 -30.7102 -30.7101 -30.7101
   -30.7100 -30.7100 -30.7100 -30.7099 -30.7099 -30.7099 -30.7099 -30.7099
   -30.6428 -30.6428 -30.6427 -30.6427 -30.6427 -30.6425 -30.6425 -30.6424
   -30.6423 -30.6422 -30.6422 -30.6421 -30.6420 -30.6420 -30.6419 -30.6419
    13.7353  13.7359  13.7359  13.7361  13.7362  13.7366  13.7366  13.7369
    14.5871  14.5872  14.5872  14.5872  14.5872  14.5873  14.5873  14.5874
    14.5874  14.5874  14.5875  14.5875  14.5876  14.5877  14.5877  14.5877
    14.5878  14.5878  14.5879  14.5879  14.5879  14.5879  14.5880  14.5880
    15.3342  15.3343  15.3345  15.3346  15.3346  15.3346  15.3346  15.3347
    15.3347  15.3348  15.3349  15.3349  15.3349  15.3350  15.3350  15.3351
    15.3352  15.3353  15.3353  15.3354  15.3354  15.3354  15.3355  15.3355
    16.2508  16.2510  16.2510  16.2511  16.2511  16.2511  16.2511  16.2512
    16.5544  16.5545  16.5545  16.5546  16.5546  16.5546  16.5547  16.5547
    16.5548  16.5549  16.5549  16.5549  16.5550  16.5550  16.5551  16.5551
    16.7375  16.7376  16.7376  16.7378  16.7378  16.7378  16.7378  16.7379
    16.7379  16.7379  16.7380  16.7380  16.7380  16.7380  16.7380  16.7381
    16.7381  16.7382  16.7382  16.7382  16.7382  16.7383  16.7383  16.7385
    17.4450  17.4450  17.4451  17.4451  17.4452  17.4453  17.4453  17.4454
    17.4454  17.4454  17.4455  17.4455  17.4456  17.4456  17.4456  17.4456
    17.4457  17.4458  17.4458  17.4458  17.4458  17.4459  17.4460  17.4462
    17.9423  17.9425  17.9425  17.9425  17.9426  17.9426  17.9426  17.9427
    17.9428  17.9429  17.9429  17.9430  17.9430  17.9431  17.9432  17.9432
    19.0160  19.0161  19.0161  19.0162  19.0162  19.0163  19.0163  19.0163
    19.0163  19.0164  19.0164  19.0164  19.0164  19.0165  19.0165  19.0165
    19.0165  19.0166  19.0166  19.0167  19.0167  19.0168  19.0168  19.0169
    22.5682  22.5683  22.5684  22.5684  22.5686  22.5686  22.5687  22.5687
    22.5687  22.5688  22.5688  22.5688  22.5689  22.5690  22.5690  22.5690
    22.5691  22.5692  22.5692  22.5693  22.5694  22.5694  22.5695  22.5695
    27.9756  27.9757  27.9757  27.9758  27.9758  27.9758  27.9758  27.9758
    27.9759  27.9760  27.9760  27.9761  27.9764  27.9764  27.9764  27.9764
    27.9764  27.9765  27.9766  27.9766  27.9767  27.9767  27.9767  27.9767
    33.1874  33.1888

     the Fermi energy is    19.0398 ev

!    total energy              =  -16384.95982327 Ry
     Harris-Foulkes estimate   =  -16384.95981062 Ry
     estimated scf accuracy    <       0.00000099 Ry

     total all-electron energy =   -322945.813530 Ry

     The total energy is the sum of the following terms:

     one-electron contribution =   -2517.70002624 Ry
     hartree contribution      =    1671.82674069 Ry
     xc contribution           =    -986.29326652 Ry
     ewald contribution        =   -6385.41451570 Ry
     one-center paw contrib.   =   -8167.41497413 Ry
     smearing contrib. (-TS)   =       0.03621864 Ry

     convergence has been achieved in  10 iterations

     Forces acting on atoms (cartesian axes, Ry/au):

     atom    1 type  1   force =     0.00000000    0.00000000   -0.00000000
     atom    2 type  1   force =     0.00006034    0.00006034   -0.00000000
     atom    3 type  1   force =     0.00006034    0.00000000    0.00006034
     atom    4 type  1   force =    -0.00000000    0.00006034    0.00006034
     atom    5 type  1   force =     0.00000000   -0.00000000    0.00000000
     atom    6 type  1   force =     0.00011970    0.00011970    0.00000000
     atom    7 type  1   force =     0.00006034    0.00000000   -0.00006034
     atom    8 type  1   force =     0.00000000    0.00006034   -0.00006034
     atom    9 type  1   force =     0.00000000    0.00000000    0.00000000
     atom   10 type  1   force =     0.00006034   -0.00006034    0.00000000
     atom   11 type  1   force =     0.00011970    0.00000000    0.00011970
     atom   12 type  1   force =     0.00000000   -0.00006034    0.00006034
     atom   13 type  1   force =     0.00000000    0.00000000   -0.00000000
     atom   14 type  1   force =     0.00011970   -0.00011970    0.00000000
     atom   15 type  1   force =     0.00011970    0.00000000   -0.00011970
     atom   16 type  1   force =     0.00000000   -0.00006034   -0.00006034
     atom   17 type  1   force =     0.00000000   -0.00000000   -0.00000000
     atom   18 type  1   force =    -0.00006034    0.00006034    0.00000000
     atom   19 type  1   force =    -0.00006034   -0.00000000    0.00006034
     atom   20 type  1   force =    -0.00000000    0.00011970    0.00011970
     atom   21 type  1   force =     0.00000000    0.00000000    0.00000000
     atom   22 type  1   force =    -0.00011970    0.00011970    0.00000000
     atom   23 type  1   force =    -0.00006034   -0.00000000   -0.00006034
     atom   24 type  1   force =    -0.00000000    0.00011970   -0.00011970
     atom   25 type  1   force =     0.00000000    0.00000000    0.00000000
     atom   26 type  1   force =    -0.00006034   -0.00006034    0.00000000
     atom   27 type  1   force =    -0.00011970    0.00000000    0.00011970
     atom   28 type  1   force =    -0.00000000   -0.00011970    0.00011970
     atom   29 type  1   force =     0.00000000    0.00000000   -0.00000000
     atom   30 type  1   force =    -0.00011970   -0.00011970   -0.00000000
     atom   31 type  1   force =    -0.00011970    0.00000000   -0.00011970
     atom   32 type  1   force =    -0.00000000   -0.00011970   -0.00011970

     Total force =     0.000657     Total SCF correction =     0.005891
     SCF correction compared to forces is large: reduce conv_thr to get better values

     Computing stress (Cartesian axis) and pressure

          total   stress  (Ry/bohr**3)                   (kbar)     P=  -16.97
  -0.00011534   0.00000000   0.00000000        -16.97      0.00      0.00
   0.00000000  -0.00011534   0.00000000          0.00    -16.97      0.00
   0.00000000   0.00000000  -0.00011534          0.00      0.00    -16.97

     Writing output data file aljDaXpofUbUnLrt.save/

     General routines

     Parallel routines

   This run was terminated on:   9:37:44  11Nov2020

   JOB DONE.