     Program PWSCF v.6.3 starts on 11Nov2020 at  9: 2:15

     R & G space division:  proc/nbgrp/npool/nimage =      20
     Reading input from wd/eos/eos_005.in
Warning: card &IONS ignored
Warning: card ION_DYNAMICS = 'BFGS', ignored
Warning: card / ignored
Warning: card &CELL ignored
Warning: card CELL_DYNAMICS = 'BFGS', ignored
Warning: card CELL_FACTOR = 2.0, ignored
Warning: card PRESS = 0.0, ignored
Warning: card / ignored

     Current dimensions of program PWSCF are:
     Max number of different atomic species (ntypx) = 10
     Max number of k-points (npk) =  40000
     Max angular momentum in pseudopotentials (lmaxx) =  3
               file Pd.pbe-spn-kjpaw_psl.1.0.0.UPF: wavefunction(s)  4S 5S 4D renormalized

     Subspace diagonalization in iterative solution of the eigenvalue problem:
     a serial algorithm will be used

     bravais-lattice index     =            0
     lattice parameter (alat)  =      14.8394  a.u.
     unit-cell volume          =    3284.1307 (a.u.)^3
     number of atoms/cell      =           32
     number of atomic types    =            1
     number of electrons       =       576.00
     number of Kohn-Sham states=          346
     kinetic-energy cutoff     =      71.0000  Ry
     charge density cutoff     =     430.0000  Ry
     convergence threshold     =      1.0E-06
     mixing beta               =       0.1000
     number of iterations used =           10  plain     mixing
     Exchange-correlation      = SLA PW PBX PBC ( 1  4  3  4 0 0)

     celldm(1)=  14.839420  celldm(2)=   0.000000  celldm(3)=   0.000000
     celldm(4)=   0.000000  celldm(5)=   0.000000  celldm(6)=   0.000000

     crystal axes: (cart. coord. in units of alat)
               a(1) = (   1.001667   0.000000   0.000000 )
               a(2) = (   0.000000   1.001667   0.000000 )
               a(3) = (   0.000000   0.000000   1.001667 )

     reciprocal axes: (cart. coord. in units 2 pi/alat)
               b(1) = (  0.998336  0.000000  0.000000 )
               b(2) = (  0.000000  0.998336  0.000000 )
               b(3) = (  0.000000  0.000000  0.998336 )

     PseudoPot. # 1 for Pd read from file:
     /rds/homes/b/bxp912/pp/Pd.pbe-spn-kjpaw_psl.1.0.0.UPF
     MD5 check sum: 790f2ebce206edfd9790dcb9844eca51
     Pseudo is Projector augmented-wave + core cor, Zval = 18.0
     Generated using "atomic" code by A. Dal Corso v.6.3
     Shape of augmentation charge: PSQ
     Using radial grid of 1235 points,  6 beta functions with:
                l(1) =   0
                l(2) =   0
                l(3) =   1
                l(4) =   1
                l(5) =   2
                l(6) =   2
     Q(r) pseudized with 0 coefficients

     atomic species   valence    mass     pseudopotential
        Pd            18.00   106.42000     Pd( 1.00)

     48 Sym. Ops., with inversion, found

   Cartesian axes

     site n.     atom                  positions (alat units)
         1           Pd  tau(   1) = (   0.0000000   0.0000000   0.0000000  )
         2           Pd  tau(   2) = (   0.2504211   0.2504211   0.0000000  )
         3           Pd  tau(   3) = (   0.2504211   0.0000000   0.2504206  )
         4           Pd  tau(   4) = (   0.0000000   0.2504211   0.2504206  )
         5           Pd  tau(   5) = (   0.0000000   0.0000000   0.5008323  )
         6           Pd  tau(   6) = (   0.2504283   0.2504283   0.5008323  )
         7           Pd  tau(   7) = (   0.2504211   0.0000000   0.7512450  )
         8           Pd  tau(   8) = (   0.0000000   0.2504211   0.7512450  )
         9           Pd  tau(   9) = (   0.0000000   0.5008331   0.0000000  )
        10           Pd  tau(  10) = (   0.2504211   0.7512452   0.0000000  )
        11           Pd  tau(  11) = (   0.2504283   0.5008331   0.2504276  )
        12           Pd  tau(  12) = (   0.0000000   0.7512452   0.2504206  )
        13           Pd  tau(  13) = (   0.0000000   0.5008331   0.5008323  )
        14           Pd  tau(  14) = (   0.2504283   0.7512381   0.5008323  )
        15           Pd  tau(  15) = (   0.2504283   0.5008331   0.7512381  )
        16           Pd  tau(  16) = (   0.0000000   0.7512452   0.7512450  )
        17           Pd  tau(  17) = (   0.5008331   0.0000000   0.0000000  )
        18           Pd  tau(  18) = (   0.7512452   0.2504211   0.0000000  )
        19           Pd  tau(  19) = (   0.7512452   0.0000000   0.2504206  )
        20           Pd  tau(  20) = (   0.5008331   0.2504283   0.2504276  )
        21           Pd  tau(  21) = (   0.5008331   0.0000000   0.5008323  )
        22           Pd  tau(  22) = (   0.7512381   0.2504283   0.5008323  )
        23           Pd  tau(  23) = (   0.7512452   0.0000000   0.7512450  )
        24           Pd  tau(  24) = (   0.5008331   0.2504283   0.7512381  )
        25           Pd  tau(  25) = (   0.5008331   0.5008331   0.0000000  )
        26           Pd  tau(  26) = (   0.7512452   0.7512452   0.0000000  )
        27           Pd  tau(  27) = (   0.7512381   0.5008331   0.2504276  )
        28           Pd  tau(  28) = (   0.5008331   0.7512381   0.2504276  )
        29           Pd  tau(  29) = (   0.5008331   0.5008331   0.5008323  )
        30           Pd  tau(  30) = (   0.7512381   0.7512381   0.5008323  )
        31           Pd  tau(  31) = (   0.7512381   0.5008331   0.7512381  )
        32           Pd  tau(  32) = (   0.5008331   0.7512381   0.7512381  )

     number of k points=    35  Marzari-Vanderbilt smearing, width (Ry)=  0.0400
                       cart. coord. in units 2pi/alat
        k(    1) = (   0.0554631   0.0554631   0.0554631), wk =   0.0219479
        k(    2) = (   0.0554631   0.0554631   0.1663894), wk =   0.0658436
        k(    3) = (   0.0554631   0.0554631   0.2773156), wk =   0.0658436
        k(    4) = (   0.0554631   0.0554631   0.3882418), wk =   0.0658436
        k(    5) = (   0.0554631   0.0554631  -0.4991681), wk =   0.0329218
        k(    6) = (   0.0554631   0.1663894   0.1663894), wk =   0.0658436
        k(    7) = (   0.0554631   0.1663894   0.2773156), wk =   0.1316872
        k(    8) = (   0.0554631   0.1663894   0.3882418), wk =   0.1316872
        k(    9) = (   0.0554631   0.1663894  -0.4991681), wk =   0.0658436
        k(   10) = (   0.0554631   0.2773156   0.2773156), wk =   0.0658436
        k(   11) = (   0.0554631   0.2773156   0.3882418), wk =   0.1316872
        k(   12) = (   0.0554631   0.2773156  -0.4991681), wk =   0.0658436
        k(   13) = (   0.0554631   0.3882418   0.3882418), wk =   0.0658436
        k(   14) = (   0.0554631   0.3882418  -0.4991681), wk =   0.0658436
        k(   15) = (   0.0554631  -0.4991681  -0.4991681), wk =   0.0164609
        k(   16) = (   0.1663894   0.1663894   0.1663894), wk =   0.0219479
        k(   17) = (   0.1663894   0.1663894   0.2773156), wk =   0.0658436
        k(   18) = (   0.1663894   0.1663894   0.3882418), wk =   0.0658436
        k(   19) = (   0.1663894   0.1663894  -0.4991681), wk =   0.0329218
        k(   20) = (   0.1663894   0.2773156   0.2773156), wk =   0.0658436
        k(   21) = (   0.1663894   0.2773156   0.3882418), wk =   0.1316872
        k(   22) = (   0.1663894   0.2773156  -0.4991681), wk =   0.0658436
        k(   23) = (   0.1663894   0.3882418   0.3882418), wk =   0.0658436
        k(   24) = (   0.1663894   0.3882418  -0.4991681), wk =   0.0658436
        k(   25) = (   0.1663894  -0.4991681  -0.4991681), wk =   0.0164609
        k(   26) = (   0.2773156   0.2773156   0.2773156), wk =   0.0219479
        k(   27) = (   0.2773156   0.2773156   0.3882418), wk =   0.0658436
        k(   28) = (   0.2773156   0.2773156  -0.4991681), wk =   0.0329218
        k(   29) = (   0.2773156   0.3882418   0.3882418), wk =   0.0658436
        k(   30) = (   0.2773156   0.3882418  -0.4991681), wk =   0.0658436
        k(   31) = (   0.2773156  -0.4991681  -0.4991681), wk =   0.0164609
        k(   32) = (   0.3882418   0.3882418   0.3882418), wk =   0.0219479
        k(   33) = (   0.3882418   0.3882418  -0.4991681), wk =   0.0329218
        k(   34) = (   0.3882418  -0.4991681  -0.4991681), wk =   0.0164609
        k(   35) = (  -0.4991681  -0.4991681  -0.4991681), wk =   0.0027435

     Check: negative/imaginary core charge=   -0.000002    0.000000

     Initial potential from superposition of free atoms

     starting charge  575.98776, renormalised to  576.00000
     Starting wfcs are  320 randomized atomic wfcs +   26 random wfcs
     Checking if some PAW data can be deallocated...

     Self-consistent Calculation

     iteration #  1     ecut=    71.00 Ry     beta= 0.10
     Davidson diagonalization with overlap
     ethr =  1.00E-02,  avg # of iterations =  3.1

     Threshold (ethr) on eigenvalues was too large:
     Diagonalizing with lowered threshold

     Davidson diagonalization with overlap
     ethr =  8.58E-05,  avg # of iterations =  3.0

     total energy              =  -16385.02302192 Ry
     Harris-Foulkes estimate   =  -16385.09272100 Ry
     estimated scf accuracy    <       0.48846965 Ry

[...]

     total energy              =  -16384.95947032 Ry
     Harris-Foulkes estimate   =  -16384.95946699 Ry
     estimated scf accuracy    <       0.00000680 Ry

     iteration # 10     ecut=    71.00 Ry     beta= 0.10
     Davidson diagonalization with overlap
     ethr =  1.18E-09,  avg # of iterations =  1.3

     End of self-consistent calculation

          k = 0.0555 0.0555 0.0555 ( 33149 PWs)   bands (ev):

   -64.9844 -64.9560 -64.9559 -64.9559 -64.9506 -64.9505 -64.9505 -64.9405
   -64.9404 -64.9404 -64.9381 -64.9378 -64.9377 -64.9376 -64.9375 -64.9374
   -64.9373 -64.9372 -64.9371 -64.9366 -64.9350 -64.9349 -64.9348 -64.9228
   -64.9223 -64.9222 -64.9220 -64.9219 -64.9219 -64.9218 -64.9217 -64.9212
   -30.8658 -30.8658 -30.8658 -30.8638 -30.8455 -30.8455 -30.8455 -30.7691
   -30.7690 -30.7690 -30.7648 -30.7648 -30.7648 -30.7648 -30.7647 -30.7647
   -30.7571 -30.7571 -30.7571 -30.7519 -30.7519 -30.7519 -30.7519 -30.7519
   -30.7518 -30.7336 -30.7336 -30.7336 -30.7335 -30.7335 -30.7335 -30.6932
   -30.6932 -30.6932 -30.6693 -30.6693 -30.6693 -30.6633 -30.6633 -30.6633
   -30.6541 -30.6541 -30.6541 -30.6541 -30.6540 -30.6540 -30.6393 -30.6393
   -30.6393 -30.6387 -30.6384 -30.6384 -30.6384 -30.6383 -30.6383 -30.6379
   -30.6379 -30.6376 -30.6363 -30.6363 -30.6362 -30.5740 -30.5740 -30.5740
   -30.5738 -30.5738 -30.5737 -30.5618 -30.5618 -30.5618 -30.5617 -30.5617
   -30.5617 -30.5584 -30.5583 -30.5583 -30.5544 -30.5540 -30.5539 -30.5534
   -30.5534 -30.5533 -30.5533 -30.5532 -30.5531 -30.5529 -30.5528 -30.5526
   -30.5519 -30.5519 -30.5463 -30.5463 -30.5463 -30.5015 -30.4992 -30.4992
    12.2020  13.9619  13.9619  13.9619  14.0273  14.0409  14.0409  14.0409
    14.2253  14.2254  14.2255  14.2350  14.2350  14.2350  14.4210  14.4212
    14.4212  14.9684  14.9684  14.9685  14.9685  14.9685  14.9687  15.1206
    15.1207  15.1207  15.2668  15.2669  15.2669  15.3058  15.3059  15.3059
    15.3494  15.3495  15.3495  15.3495  15.3495  15.3496  15.3519  15.3520
    15.3520  15.6925  15.6925  15.6925  15.6926  15.6926  15.6926  15.7990
    15.7991  15.7991  15.8209  15.8209  15.8209  15.8210  15.8210  15.8210
    15.8775  15.8776  15.8776  16.0458  16.0458  16.0458  16.0459  16.0459
    16.0459  16.1512  16.1513  16.1513  16.1556  16.1557  16.1557  16.1557
    16.1557  16.1559  16.2626  16.2627  16.2627  16.3259  16.3259  16.3259
    16.3466  16.3466  16.3572  16.3572  16.3572  16.3746  16.3940  16.3940
    17.1855  17.1856  17.1856  17.2458  17.2458  17.2459  17.3179  17.3180
    17.3180  17.3181  17.3181  17.3181  17.3240  17.3240  17.3241  17.3718
    17.3720  17.3720  17.4739  17.4739  17.4740  17.5916  17.5918  17.5918
    17.7159  17.7159  17.7160  17.7730  17.7730  17.7732  17.8462  17.8463
    17.8463  17.8463  17.8464  17.8464  17.8650  17.8650  17.8651  17.9119
    17.9119  17.9198  17.9198  17.9198  17.9198  17.9199  17.9200  18.0281
    18.0281  18.0282  18.4122  18.4122  18.4123  18.5131  18.5132  18.5132
    18.8943  18.8943  18.8943  19.0163  19.0163  19.0163  19.0429  19.0429
    19.0629  19.0629  19.0629  19.2914  19.2915  19.2915  19.3449  19.3450
    19.3450  19.3450  19.3450  19.3450  19.3481  19.3481  19.3482  20.0252
    20.3287  20.3287  20.3287  20.8378  20.8379  20.8379  21.3461  21.3461
    21.3461  21.3461  21.3461  21.3462  21.8735  21.8736  21.8736  22.4662
    22.4662  22.4662  26.1850  26.1850  26.1850  26.3419  27.3452  27.3452
    27.3453  27.3453  27.3453  27.3454  28.0355  28.0355  28.0355  28.0356
    28.0356  28.0357  29.4371  29.4371  29.4371  29.4371  29.4371  29.4372
    29.5934  29.5934  29.5934  30.5593  30.5990  30.5990  30.5990  30.5991
    30.5991  30.5992

[...]

          k = 0.3882-0.4992-0.4992 ( 33188 PWs)   bands (ev):

[...]

          k =-0.4992-0.4992-0.4992 ( 33168 PWs)   bands (ev):

   -64.9618 -64.9615 -64.9615 -64.9613 -64.9611 -64.9607 -64.9607 -64.9605
   -64.9307 -64.9305 -64.9304 -64.9304 -64.9302 -64.9302 -64.9301 -64.9300
   -64.9299 -64.9299 -64.9298 -64.9298 -64.9297 -64.9296 -64.9294 -64.9294
   -64.9293 -64.9293 -64.9292 -64.9291 -64.9291 -64.9289 -64.9288 -64.9287
   -30.8055 -30.8055 -30.8055 -30.8054 -30.8052 -30.8051 -30.8051 -30.8050
   -30.8050 -30.8050 -30.8050 -30.8049 -30.8048 -30.8048 -30.8047 -30.8047
   -30.8047 -30.8046 -30.8045 -30.8045 -30.8043 -30.8042 -30.8042 -30.8042
   -30.6847 -30.6846 -30.6846 -30.6845 -30.6844 -30.6843 -30.6843 -30.6842
   -30.6483 -30.6483 -30.6482 -30.6482 -30.6482 -30.6481 -30.6481 -30.6481
   -30.6481 -30.6480 -30.6480 -30.6480 -30.6480 -30.6479 -30.6479 -30.6479
   -30.6479 -30.6478 -30.6478 -30.6478 -30.6478 -30.6477 -30.6477 -30.6476
   -30.5951 -30.5951 -30.5950 -30.5950 -30.5949 -30.5949 -30.5949 -30.5949
   -30.5948 -30.5948 -30.5947 -30.5946 -30.5946 -30.5945 -30.5944 -30.5944
   -30.5944 -30.5944 -30.5943 -30.5943 -30.5942 -30.5942 -30.5942 -30.5942
   -30.5259 -30.5259 -30.5258 -30.5258 -30.5258 -30.5256 -30.5256 -30.5255
   -30.5254 -30.5253 -30.5253 -30.5252 -30.5251 -30.5250 -30.5250 -30.5250
    13.8316  13.8321  13.8321  13.8323  13.8324  13.8328  13.8328  13.8331
    14.6818  14.6818  14.6819  14.6819  14.6819  14.6819  14.6819  14.6820
    14.6820  14.6820  14.6822  14.6822  14.6822  14.6824  14.6824  14.6824
    14.6825  14.6825  14.6825  14.6826  14.6826  14.6826  14.6826  14.6826
    15.4334  15.4335  15.4337  15.4338  15.4338  15.4339  15.4339  15.4339
    15.4339  15.4340  15.4341  15.4341  15.4342  15.4342  15.4342  15.4343
    15.4344  15.4345  15.4346  15.4346  15.4346  15.4347  15.4347  15.4348
    16.3578  16.3580  16.3580  16.3580  16.3580  16.3581  16.3581  16.3581
    16.6639  16.6640  16.6640  16.6641  16.6641  16.6641  16.6642  16.6642
    16.6643  16.6644  16.6644  16.6644  16.6645  16.6645  16.6645  16.6646
    16.8482  16.8483  16.8483  16.8484  16.8484  16.8484  16.8485  16.8485
    16.8485  16.8485  16.8486  16.8486  16.8486  16.8487  16.8487  16.8487
    16.8488  16.8488  16.8488  16.8488  16.8489  16.8489  16.8489  16.8491
    17.5614  17.5614  17.5615  17.5615  17.5616  17.5617  17.5617  17.5617
    17.5618  17.5618  17.5619  17.5619  17.5619  17.5619  17.5620  17.5620
    17.5621  17.5622  17.5622  17.5622  17.5622  17.5622  17.5623  17.5625
    18.0630  18.0632  18.0632  18.0633  18.0633  18.0634  18.0634  18.0635
    18.0636  18.0636  18.0637  18.0637  18.0638  18.0639  18.0640  18.0640
    19.1463  19.1463  19.1463  19.1464  19.1464  19.1465  19.1465  19.1465
    19.1466  19.1466  19.1466  19.1466  19.1467  19.1467  19.1467  19.1468
    19.1468  19.1468  19.1468  19.1469  19.1470  19.1470  19.1470  19.1471
    22.7104  22.7104  22.7105  22.7105  22.7107  22.7107  22.7108  22.7109
    22.7109  22.7109  22.7109  22.7109  22.7111  22.7111  22.7111  22.7111
    22.7112  22.7113  22.7113  22.7114  22.7115  22.7116  22.7116  22.7116
    28.1371  28.1371  28.1371  28.1372  28.1373  28.1373  28.1373  28.1373
    28.1374  28.1375  28.1375  28.1376  28.1378  28.1378  28.1379  28.1379
    28.1379  28.1379  28.1381  28.1381  28.1381  28.1382  28.1382  28.1382
    33.3587  33.3587

     the Fermi energy is    19.1688 ev

!    total energy              =  -16384.95948377 Ry
     Harris-Foulkes estimate   =  -16384.95947081 Ry
     estimated scf accuracy    <       0.00000095 Ry

     total all-electron energy =   -322945.813191 Ry

     The total energy is the sum of the following terms:

     one-electron contribution =   -2501.10680910 Ry
     hartree contribution      =    1665.98047090 Ry
     xc contribution           =    -986.40793262 Ry
     ewald contribution        =   -6396.03916544 Ry
     one-center paw contrib.   =   -8167.42056327 Ry
     smearing contrib. (-TS)   =       0.03451575 Ry

     convergence has been achieved in  10 iterations

     Forces acting on atoms (cartesian axes, Ry/au):

     atom    1 type  1   force =     0.00000000    0.00000000   -0.00000000
     atom    2 type  1   force =     0.00005973    0.00005973    0.00000000
     atom    3 type  1   force =     0.00005973   -0.00000000    0.00005973
     atom    4 type  1   force =    -0.00000000    0.00005973    0.00005973
     atom    5 type  1   force =     0.00000000    0.00000000   -0.00000000
     atom    6 type  1   force =     0.00012217    0.00012217   -0.00000000
     atom    7 type  1   force =     0.00005973    0.00000000   -0.00005973
     atom    8 type  1   force =    -0.00000000    0.00005973   -0.00005973
     atom    9 type  1   force =     0.00000000    0.00000000   -0.00000000
     atom   10 type  1   force =     0.00005973   -0.00005973   -0.00000000
     atom   11 type  1   force =     0.00012217   -0.00000000    0.00012217
     atom   12 type  1   force =    -0.00000000   -0.00005973    0.00005973
     atom   13 type  1   force =     0.00000000    0.00000000    0.00000000
     atom   14 type  1   force =     0.00012217   -0.00012217    0.00000000
     atom   15 type  1   force =     0.00012217    0.00000000   -0.00012217
     atom   16 type  1   force =    -0.00000000   -0.00005973   -0.00005973
     atom   17 type  1   force =     0.00000000    0.00000000    0.00000000
     atom   18 type  1   force =    -0.00005973    0.00005973   -0.00000000
     atom   19 type  1   force =    -0.00005973    0.00000000    0.00005973
     atom   20 type  1   force =     0.00000000    0.00012217    0.00012217
     atom   21 type  1   force =     0.00000000    0.00000000    0.00000000
     atom   22 type  1   force =    -0.00012217    0.00012217   -0.00000000
     atom   23 type  1   force =    -0.00005973   -0.00000000   -0.00005973
     atom   24 type  1   force =    -0.00000000    0.00012217   -0.00012217
     atom   25 type  1   force =     0.00000000    0.00000000    0.00000000
     atom   26 type  1   force =    -0.00005973   -0.00005973    0.00000000
     atom   27 type  1   force =    -0.00012217   -0.00000000    0.00012217
     atom   28 type  1   force =     0.00000000   -0.00012217    0.00012217
     atom   29 type  1   force =     0.00000000    0.00000000    0.00000000
     atom   30 type  1   force =    -0.00012217   -0.00012217    0.00000000
     atom   31 type  1   force =    -0.00012217    0.00000000   -0.00012217
     atom   32 type  1   force =     0.00000000   -0.00012217   -0.00012217

     Total force =     0.000666     Total SCF correction =     0.005832
     SCF correction compared to forces is large: reduce conv_thr to get better values

     Computing stress (Cartesian axis) and pressure

          total   stress  (Ry/bohr**3)                   (kbar)     P=   -8.26
  -0.00005615   0.00000000   0.00000000         -8.26      0.00      0.00
   0.00000000  -0.00005615   0.00000000          0.00     -8.26      0.00
   0.00000000   0.00000000  -0.00005615          0.00      0.00     -8.26

     Writing output data file tkNrmztWHwhSOwRg.save/

     General routines

     Parallel routines

   This run was terminated on:   9:19:59  11Nov2020

   JOB DONE.