     Program PWSCF v.6.3 starts on 11Nov2020 at  8:44:26

     R & G space division:  proc/nbgrp/npool/nimage =      20
     Reading input from wd/eos/eos_004.in
Warning: card &IONS ignored
Warning: card ION_DYNAMICS = 'BFGS', ignored
Warning: card / ignored
Warning: card &CELL ignored
Warning: card CELL_DYNAMICS = 'BFGS', ignored
Warning: card CELL_FACTOR = 2.0, ignored
Warning: card PRESS = 0.0, ignored
Warning: card / ignored

     Current dimensions of program PWSCF are:
     Max number of different atomic species (ntypx) = 10
     Max number of k-points (npk) =  40000
     Max angular momentum in pseudopotentials (lmaxx) =  3
               file Pd.pbe-spn-kjpaw_psl.1.0.0.UPF: wavefunction(s)  4S 5S 4D renormalized

     Subspace diagonalization in iterative solution of the eigenvalue problem:
     a serial algorithm will be used

     bravais-lattice index     =            0
     lattice parameter (alat)  =      14.8394  a.u.
     unit-cell volume          =    3267.7646 (a.u.)^3
     number of atoms/cell      =           32
     number of atomic types    =            1
     number of electrons       =       576.00
     number of Kohn-Sham states=          346
     kinetic-energy cutoff     =      71.0000  Ry
     charge density cutoff     =     430.0000  Ry
     convergence threshold     =      1.0E-06
     mixing beta               =       0.1000
     number of iterations used =           10  plain     mixing
     Exchange-correlation      = SLA PW PBX PBC ( 1  4  3  4 0 0)

     celldm(1)=  14.839420  celldm(2)=   0.000000  celldm(3)=   0.000000
     celldm(4)=   0.000000  celldm(5)=   0.000000  celldm(6)=   0.000000

     crystal axes: (cart. coord. in units of alat)
               a(1) = (   1.000000   0.000000   0.000000 )
               a(2) = (   0.000000   1.000000   0.000000 )
               a(3) = (   0.000000   0.000000   1.000000 )

     reciprocal axes: (cart. coord. in units 2 pi/alat)
               b(1) = (  1.000000  0.000000  0.000000 )
               b(2) = (  0.000000  1.000000  0.000000 )
               b(3) = (  0.000000  0.000000  1.000000 )

     PseudoPot. # 1 for Pd read from file:
     /rds/homes/b/bxp912/pp/Pd.pbe-spn-kjpaw_psl.1.0.0.UPF
     MD5 check sum: 790f2ebce206edfd9790dcb9844eca51
     Pseudo is Projector augmented-wave + core cor, Zval = 18.0
     Generated using "atomic" code by A. Dal Corso v.6.3
     Shape of augmentation charge: PSQ
     Using radial grid of 1235 points,  6 beta functions with:
                l(1) =   0
                l(2) =   0
                l(3) =   1
                l(4) =   1
                l(5) =   2
                l(6) =   2
     Q(r) pseudized with 0 coefficients

     atomic species   valence    mass     pseudopotential
        Pd            18.00   106.42000     Pd( 1.00)

     48 Sym. Ops., with inversion, found

   Cartesian axes

     site n.     atom                  positions (alat units)
         1           Pd  tau(   1) = (   0.0000000   0.0000000   0.0000000  )
         2           Pd  tau(   2) = (   0.2500045   0.2500045   0.0000000  )
         3           Pd  tau(   3) = (   0.2500045   0.0000000   0.2500040  )
         4           Pd  tau(   4) = (   0.0000000   0.2500045   0.2500040  )
         5           Pd  tau(   5) = (   0.0000000   0.0000000   0.4999990  )
         6           Pd  tau(   6) = (   0.2500116   0.2500116   0.4999990  )
         7           Pd  tau(   7) = (   0.2500045   0.0000000   0.7499950  )
         8           Pd  tau(   8) = (   0.0000000   0.2500045   0.7499950  )
         9           Pd  tau(   9) = (   0.0000000   0.4999998   0.0000000  )
        10           Pd  tau(  10) = (   0.2500045   0.7499952   0.0000000  )
        11           Pd  tau(  11) = (   0.2500116   0.4999998   0.2500109  )
        12           Pd  tau(  12) = (   0.0000000   0.7499952   0.2500040  )
        13           Pd  tau(  13) = (   0.0000000   0.4999998   0.4999990  )
        14           Pd  tau(  14) = (   0.2500116   0.7499881   0.4999990  )
        15           Pd  tau(  15) = (   0.2500116   0.4999998   0.7499881  )
        16           Pd  tau(  16) = (   0.0000000   0.7499952   0.7499950  )
        17           Pd  tau(  17) = (   0.4999998   0.0000000   0.0000000  )
        18           Pd  tau(  18) = (   0.7499952   0.2500045   0.0000000  )
        19           Pd  tau(  19) = (   0.7499952   0.0000000   0.2500040  )
        20           Pd  tau(  20) = (   0.4999998   0.2500116   0.2500109  )
        21           Pd  tau(  21) = (   0.4999998   0.0000000   0.4999990  )
        22           Pd  tau(  22) = (   0.7499881   0.2500116   0.4999990  )
        23           Pd  tau(  23) = (   0.7499952   0.0000000   0.7499950  )
        24           Pd  tau(  24) = (   0.4999998   0.2500116   0.7499881  )
        25           Pd  tau(  25) = (   0.4999998   0.4999998   0.0000000  )
        26           Pd  tau(  26) = (   0.7499952   0.7499952   0.0000000  )
        27           Pd  tau(  27) = (   0.7499881   0.4999998   0.2500109  )
        28           Pd  tau(  28) = (   0.4999998   0.7499881   0.2500109  )
        29           Pd  tau(  29) = (   0.4999998   0.4999998   0.4999990  )
        30           Pd  tau(  30) = (   0.7499881   0.7499881   0.4999990  )
        31           Pd  tau(  31) = (   0.7499881   0.4999998   0.7499881  )
        32           Pd  tau(  32) = (   0.4999998   0.7499881   0.7499881  )

     number of k points=    35  Marzari-Vanderbilt smearing, width (Ry)=  0.0400
                       cart. coord. in units 2pi/alat
        k(    1) = (   0.0555556   0.0555556   0.0555556), wk =   0.0219479
        k(    2) = (   0.0555556   0.0555556   0.1666667), wk =   0.0658436
        k(    3) = (   0.0555556   0.0555556   0.2777778), wk =   0.0658436
        k(    4) = (   0.0555556   0.0555556   0.3888889), wk =   0.0658436
        k(    5) = (   0.0555556   0.0555556  -0.5000000), wk =   0.0329218
        k(    6) = (   0.0555556   0.1666667   0.1666667), wk =   0.0658436
        k(    7) = (   0.0555556   0.1666667   0.2777778), wk =   0.1316872
        k(    8) = (   0.0555556   0.1666667   0.3888889), wk =   0.1316872
        k(    9) = (   0.0555556   0.1666667  -0.5000000), wk =   0.0658436
        k(   10) = (   0.0555556   0.2777778   0.2777778), wk =   0.0658436
        k(   11) = (   0.0555556   0.2777778   0.3888889), wk =   0.1316872
        k(   12) = (   0.0555556   0.2777778  -0.5000000), wk =   0.0658436
        k(   13) = (   0.0555556   0.3888889   0.3888889), wk =   0.0658436
        k(   14) = (   0.0555556   0.3888889  -0.5000000), wk =   0.0658436
        k(   15) = (   0.0555556  -0.5000000  -0.5000000), wk =   0.0164609
        k(   16) = (   0.1666667   0.1666667   0.1666667), wk =   0.0219479
        k(   17) = (   0.1666667   0.1666667   0.2777778), wk =   0.0658436
        k(   18) = (   0.1666667   0.1666667   0.3888889), wk =   0.0658436
        k(   19) = (   0.1666667   0.1666667  -0.5000000), wk =   0.0329218
        k(   20) = (   0.1666667   0.2777778   0.2777778), wk =   0.0658436
        k(   21) = (   0.1666667   0.2777778   0.3888889), wk =   0.1316872
        k(   22) = (   0.1666667   0.2777778  -0.5000000), wk =   0.0658436
        k(   23) = (   0.1666667   0.3888889   0.3888889), wk =   0.0658436
        k(   24) = (   0.1666667   0.3888889  -0.5000000), wk =   0.0658436
        k(   25) = (   0.1666667  -0.5000000  -0.5000000), wk =   0.0164609
        k(   26) = (   0.2777778   0.2777778   0.2777778), wk =   0.0219479
        k(   27) = (   0.2777778   0.2777778   0.3888889), wk =   0.0658436
        k(   28) = (   0.2777778   0.2777778  -0.5000000), wk =   0.0329218
        k(   29) = (   0.2777778   0.3888889   0.3888889), wk =   0.0658436
        k(   30) = (   0.2777778   0.3888889  -0.5000000), wk =   0.0658436
        k(   31) = (   0.2777778  -0.5000000  -0.5000000), wk =   0.0164609
        k(   32) = (   0.3888889   0.3888889   0.3888889), wk =   0.0219479
        k(   33) = (   0.3888889   0.3888889  -0.5000000), wk =   0.0329218
        k(   34) = (   0.3888889  -0.5000000  -0.5000000), wk =   0.0164609
        k(   35) = (  -0.5000000  -0.5000000  -0.5000000), wk =   0.0027435

     Check: negative/imaginary core charge=   -0.000002    0.000000

     Initial potential from superposition of free atoms

     starting charge  575.98776, renormalised to  576.00000
     Starting wfcs are  320 randomized atomic wfcs +   26 random wfcs
     Checking if some PAW data can be deallocated...

     Self-consistent Calculation

     iteration #  1     ecut=    71.00 Ry     beta= 0.10
     Davidson diagonalization with overlap
     ethr =  1.00E-02,  avg # of iterations =  3.1

     Threshold (ethr) on eigenvalues was too large:
     Diagonalizing with lowered threshold

     Davidson diagonalization with overlap
     ethr =  8.30E-05,  avg # of iterations =  3.0

     total energy              =  -16385.02003425 Ry
     Harris-Foulkes estimate   =  -16385.08724579 Ry
     estimated scf accuracy    <       0.47241825 Ry

[...]

     total energy              =  -16384.95814394 Ry
     Harris-Foulkes estimate   =  -16384.95814043 Ry
     estimated scf accuracy    <       0.00000604 Ry

     iteration # 10     ecut=    71.00 Ry     beta= 0.10
     Davidson diagonalization with overlap
     ethr =  1.05E-09,  avg # of iterations =  1.0

     End of self-consistent calculation

          k = 0.0556 0.0556 0.0556 ( 32996 PWs)   bands (ev):

   -64.8696 -64.8405 -64.8404 -64.8404 -64.8349 -64.8348 -64.8348 -64.8247
   -64.8245 -64.8245 -64.8222 -64.8219 -64.8217 -64.8217 -64.8215 -64.8215
   -64.8214 -64.8212 -64.8212 -64.8207 -64.8190 -64.8189 -64.8188 -64.8065
   -64.8060 -64.8059 -64.8057 -64.8056 -64.8056 -64.8055 -64.8054 -64.8049
   -30.7541 -30.7540 -30.7540 -30.7523 -30.7336 -30.7336 -30.7336 -30.6559
   -30.6558 -30.6558 -30.6515 -30.6515 -30.6514 -30.6514 -30.6514 -30.6514
   -30.6436 -30.6436 -30.6436 -30.6383 -30.6383 -30.6383 -30.6383 -30.6383
   -30.6382 -30.6197 -30.6197 -30.6197 -30.6196 -30.6196 -30.6196 -30.5786
   -30.5786 -30.5786 -30.5541 -30.5541 -30.5541 -30.5480 -30.5480 -30.5480
   -30.5386 -30.5386 -30.5386 -30.5386 -30.5386 -30.5386 -30.5236 -30.5236
   -30.5236 -30.5231 -30.5227 -30.5227 -30.5227 -30.5226 -30.5226 -30.5222
   -30.5221 -30.5219 -30.5206 -30.5206 -30.5204 -30.4571 -30.4571 -30.4571
   -30.4569 -30.4569 -30.4569 -30.4447 -30.4447 -30.4446 -30.4445 -30.4445
   -30.4445 -30.4411 -30.4411 -30.4410 -30.4370 -30.4366 -30.4366 -30.4360
   -30.4360 -30.4360 -30.4359 -30.4359 -30.4357 -30.4355 -30.4355 -30.4352
   -30.4345 -30.4345 -30.4288 -30.4288 -30.4288 -30.3832 -30.3807 -30.3807
    12.2944  14.0511  14.0511  14.0511  14.1198  14.1336  14.1336  14.1336
    14.3238  14.3239  14.3240  14.3263  14.3263  14.3263  14.5188  14.5189
    14.5189  15.0644  15.0644  15.0645  15.0645  15.0645  15.0647  15.2184
    15.2185  15.2185  15.3686  15.3687  15.3687  15.4050  15.4051  15.4051
    15.4512  15.4513  15.4513  15.4513  15.4513  15.4513  15.4531  15.4532
    15.4533  15.7951  15.7951  15.7951  15.7952  15.7952  15.7952  15.9024
    15.9025  15.9025  15.9244  15.9244  15.9244  15.9245  15.9245  15.9246
    15.9813  15.9814  15.9814  16.1510  16.1510  16.1511  16.1511  16.1511
    16.1511  16.2565  16.2566  16.2566  16.2609  16.2609  16.2609  16.2609
    16.2609  16.2611  16.3686  16.3687  16.3687  16.4333  16.4333  16.4333
    16.4542  16.4542  16.4649  16.4649  16.4649  16.4828  16.5024  16.5024
    17.2996  17.2996  17.2996  17.3602  17.3603  17.3603  17.4329  17.4330
    17.4330  17.4331  17.4331  17.4331  17.4390  17.4390  17.4391  17.4871
    17.4873  17.4873  17.5906  17.5906  17.5907  17.7091  17.7093  17.7093
    17.8346  17.8346  17.8347  17.8922  17.8922  17.8923  17.9653  17.9655
    17.9655  17.9655  17.9655  17.9655  17.9845  17.9845  17.9845  18.0327
    18.0327  18.0402  18.0402  18.0402  18.0402  18.0402  18.0403  18.1494
    18.1494  18.1495  18.5370  18.5370  18.5371  18.6388  18.6388  18.6389
    19.0218  19.0218  19.0218  19.1463  19.1463  19.1463  19.1732  19.1732
    19.1934  19.1934  19.1934  19.4236  19.4236  19.4236  19.4778  19.4779
    19.4779  19.4779  19.4779  19.4780  19.4810  19.4810  19.4811  20.1446
    20.4510  20.4510  20.4510  20.9771  20.9771  20.9771  21.4874  21.4874
    21.4874  21.4874  21.4874  21.4875  22.0167  22.0168  22.0168  22.5969
    22.5969  22.5969  26.3539  26.3539  26.3539  26.5107  27.5025  27.5025
    27.5025  27.5026  27.5026  27.5026  28.1949  28.1950  28.1950  28.1951
    28.1951  28.1951  29.6085  29.6085  29.6085  29.6086  29.6086  29.6086
    29.7739  29.7739  29.7739  30.7303  30.7668  30.7669  30.7669  30.7670
    30.7670  30.7671

[...]

          k = 0.3889-0.5000-0.5000 ( 33008 PWs)   bands (ev):

[...]

          k =-0.5000-0.5000-0.5000 ( 32968 PWs)   bands (ev):

   -64.8464 -64.8462 -64.8461 -64.8459 -64.8457 -64.8454 -64.8453 -64.8451
   -64.8146 -64.8144 -64.8143 -64.8142 -64.8141 -64.8141 -64.8139 -64.8138
   -64.8138 -64.8138 -64.8137 -64.8137 -64.8136 -64.8135 -64.8133 -64.8133
   -64.8132 -64.8132 -64.8131 -64.8130 -64.8130 -64.8128 -64.8127 -64.8125
   -30.6929 -30.6929 -30.6928 -30.6928 -30.6926 -30.6925 -30.6924 -30.6924
   -30.6924 -30.6923 -30.6923 -30.6923 -30.6922 -30.6921 -30.6921 -30.6921
   -30.6920 -30.6920 -30.6919 -30.6919 -30.6917 -30.6916 -30.6916 -30.6916
   -30.5699 -30.5698 -30.5698 -30.5697 -30.5696 -30.5695 -30.5695 -30.5694
   -30.5327 -30.5327 -30.5326 -30.5326 -30.5325 -30.5325 -30.5325 -30.5325
   -30.5324 -30.5324 -30.5324 -30.5324 -30.5323 -30.5323 -30.5323 -30.5323
   -30.5323 -30.5322 -30.5322 -30.5322 -30.5321 -30.5321 -30.5321 -30.5320
   -30.4785 -30.4785 -30.4784 -30.4784 -30.4784 -30.4784 -30.4783 -30.4783
   -30.4783 -30.4782 -30.4781 -30.4781 -30.4780 -30.4780 -30.4778 -30.4778
   -30.4778 -30.4778 -30.4778 -30.4777 -30.4777 -30.4776 -30.4776 -30.4776
   -30.4080 -30.4080 -30.4080 -30.4079 -30.4079 -30.4077 -30.4077 -30.4076
   -30.4075 -30.4074 -30.4074 -30.4073 -30.4072 -30.4072 -30.4072 -30.4071
    13.9285  13.9290  13.9290  13.9292  13.9294  13.9297  13.9297  13.9301
    14.7771  14.7771  14.7771  14.7771  14.7772  14.7772  14.7772  14.7773
    14.7773  14.7773  14.7775  14.7775  14.7775  14.7776  14.7777  14.7777
    14.7778  14.7778  14.7778  14.7778  14.7779  14.7779  14.7779  14.7779
    15.5334  15.5335  15.5336  15.5337  15.5337  15.5338  15.5338  15.5338
    15.5339  15.5340  15.5341  15.5341  15.5341  15.5341  15.5341  15.5342
    15.5343  15.5345  15.5345  15.5346  15.5346  15.5346  15.5346  15.5347
    16.4656  16.4658  16.4658  16.4658  16.4658  16.4659  16.4659  16.4659
    16.7742  16.7743  16.7743  16.7743  16.7744  16.7744  16.7744  16.7745
    16.7746  16.7746  16.7747  16.7747  16.7748  16.7748  16.7748  16.7749
    16.9595  16.9597  16.9597  16.9598  16.9598  16.9598  16.9598  16.9599
    16.9599  16.9599  16.9600  16.9600  16.9600  16.9600  16.9601  16.9601
    16.9602  16.9602  16.9602  16.9602  16.9602  16.9603  16.9603  16.9605
    17.6786  17.6786  17.6787  17.6787  17.6788  17.6789  17.6789  17.6790
    17.6790  17.6790  17.6791  17.6791  17.6791  17.6791  17.6792  17.6792
    17.6793  17.6794  17.6794  17.6794  17.6794  17.6794  17.6795  17.6797
    18.1846  18.1848  18.1848  18.1849  18.1849  18.1850  18.1850  18.1851
    18.1852  18.1852  18.1853  18.1853  18.1854  18.1855  18.1856  18.1856
    19.2774  19.2775  19.2775  19.2776  19.2776  19.2777  19.2777  19.2777
    19.2778  19.2778  19.2778  19.2778  19.2779  19.2779  19.2779  19.2779
    19.2779  19.2780  19.2780  19.2781  19.2781  19.2782  19.2782  19.2783
    22.8535  22.8536  22.8537  22.8537  22.8538  22.8539  22.8540  22.8540
    22.8540  22.8541  22.8541  22.8541  22.8542  22.8542  22.8543  22.8543
    22.8544  22.8545  22.8545  22.8546  22.8547  22.8547  22.8548  22.8548
    28.2997  28.2998  28.2998  28.2999  28.2999  28.2999  28.2999  28.2999
    28.3000  28.3001  28.3001  28.3002  28.3005  28.3005  28.3005  28.3005
    28.3005  28.3006  28.3007  28.3007  28.3008  28.3008  28.3008  28.3008
    33.5312  33.6636

     the Fermi energy is    19.2988 ev

!    total energy              =  -16384.95815771 Ry
     Harris-Foulkes estimate   =  -16384.95814435 Ry
     estimated scf accuracy    <       0.00000093 Ry

     total all-electron energy =   -322945.811865 Ry

     The total energy is the sum of the following terms:

     one-electron contribution =   -2484.47140147 Ry
     hartree contribution      =    1660.12993241 Ry
     xc contribution           =    -986.52411503 Ry
     ewald contribution        =   -6406.69923073 Ry
     one-center paw contrib.   =   -8167.42618552 Ry
     smearing contrib. (-TS)   =       0.03284263 Ry

     convergence has been achieved in  10 iterations

     Forces acting on atoms (cartesian axes, Ry/au):

     atom    1 type  1   force =     0.00000000   -0.00000000    0.00000000
     atom    2 type  1   force =     0.00005937    0.00005937   -0.00000000
     atom    3 type  1   force =     0.00005937    0.00000000    0.00005937
     atom    4 type  1   force =    -0.00000000    0.00005937    0.00005937
     atom    5 type  1   force =     0.00000000    0.00000000    0.00000000
     atom    6 type  1   force =     0.00012511    0.00012511    0.00000000
     atom    7 type  1   force =     0.00005937    0.00000000   -0.00005937
     atom    8 type  1   force =    -0.00000000    0.00005937   -0.00005937
     atom    9 type  1   force =     0.00000000    0.00000000    0.00000000
     atom   10 type  1   force =     0.00005937   -0.00005937    0.00000000
     atom   11 type  1   force =     0.00012511    0.00000000    0.00012511
     atom   12 type  1   force =     0.00000000   -0.00005937    0.00005937
     atom   13 type  1   force =     0.00000000    0.00000000   -0.00000000
     atom   14 type  1   force =     0.00012511   -0.00012511    0.00000000
     atom   15 type  1   force =     0.00012511   -0.00000000   -0.00012511
     atom   16 type  1   force =    -0.00000000   -0.00005937   -0.00005937
     atom   17 type  1   force =     0.00000000    0.00000000    0.00000000
     atom   18 type  1   force =    -0.00005937    0.00005937   -0.00000000
     atom   19 type  1   force =    -0.00005937    0.00000000    0.00005937
     atom   20 type  1   force =     0.00000000    0.00012511    0.00012511
     atom   21 type  1   force =     0.00000000    0.00000000    0.00000000
     atom   22 type  1   force =    -0.00012511    0.00012511    0.00000000
     atom   23 type  1   force =    -0.00005937   -0.00000000   -0.00005937
     atom   24 type  1   force =     0.00000000    0.00012511   -0.00012511
     atom   25 type  1   force =     0.00000000    0.00000000    0.00000000
     atom   26 type  1   force =    -0.00005937   -0.00005937   -0.00000000
     atom   27 type  1   force =    -0.00012511   -0.00000000    0.00012511
     atom   28 type  1   force =     0.00000000   -0.00012511    0.00012511
     atom   29 type  1   force =     0.00000000    0.00000000    0.00000000
     atom   30 type  1   force =    -0.00012511   -0.00012511    0.00000000
     atom   31 type  1   force =    -0.00012511    0.00000000   -0.00012511
     atom   32 type  1   force =     0.00000000   -0.00012511   -0.00012511

     Total force =     0.000678     Total SCF correction =     0.005799
     SCF correction compared to forces is large: reduce conv_thr to get better values

     Computing stress (Cartesian axis) and pressure

          total   stress  (Ry/bohr**3)                   (kbar)     P=    0.68
   0.00000464   0.00000000   0.00000000          0.68      0.00      0.00
   0.00000000   0.00000464   0.00000000          0.00      0.68      0.00
   0.00000000   0.00000000   0.00000464          0.00      0.00      0.68

     Writing output data file cezSrfjFsvjRBHDq.save/

     General routines

     Parallel routines

   This run was terminated on:   9: 2:13  11Nov2020

   JOB DONE.