     Program PWSCF v.6.3 starts on  2Nov2020 at  3: 8:46

     R & G space division:  proc/nbgrp/npool/nimage =      40
     Reading input from wd/ec/ec_1_003.in
Warning: card &IONS ignored
Warning: card ION_DYNAMICS = 'BFGS', ignored
Warning: card / ignored
Warning: card &CELL ignored
Warning: card CELL_DYNAMICS = 'BFGS', ignored
Warning: card CELL_FACTOR = 2.0, ignored
Warning: card PRESS = 0.0, ignored
Warning: card / ignored

     Current dimensions of program PWSCF are:
     Max number of different atomic species (ntypx) = 10
     Max number of k-points (npk) =  40000
     Max angular momentum in pseudopotentials (lmaxx) =  3
               file Fe.pbe-spn-kjpaw_psl.1.0.0.UPF: wavefunction(s)  3P 3D renormalized
               file Fe.pbe-spn-kjpaw_psl.1.0.0.UPF: wavefunction(s)  3P 3D renormalized

     Subspace diagonalization in iterative solution of the eigenvalue problem:
     a serial algorithm will be used

     Found symmetry operation: I + (  0.0000  0.0000 -0.5000)
     This is a supercell, fractional translations are disabled

     bravais-lattice index     =            0
     lattice parameter (alat)  =      10.5935  a.u.
     unit-cell volume          =    1190.4180 (a.u.)^3
     number of atoms/cell      =           16
     number of atomic types    =            2
     number of electrons       =       256.00
     number of Kohn-Sham states=          154
     kinetic-energy cutoff     =      71.0000  Ry
     charge density cutoff     =     430.0000  Ry
     convergence threshold     =      1.0E-06
     mixing beta               =       0.1000
     number of iterations used =           10  plain     mixing
     Exchange-correlation      = SLA PW PBX PBC ( 1  4  3  4 0 0)

     celldm(1)=  10.593520  celldm(2)=   0.000000  celldm(3)=   0.000000
     celldm(4)=   0.000000  celldm(5)=   0.000000  celldm(6)=   0.000000

     crystal axes: (cart. coord. in units of alat)
               a(1) = (   1.001333   0.000000   0.000000 )
               a(2) = (   0.000000   1.000000   0.000000 )
               a(3) = (   0.000000   0.000000   1.000000 )

     reciprocal axes: (cart. coord. in units 2 pi/alat)
               b(1) = (  0.998668  0.000000  0.000000 )
               b(2) = (  0.000000  1.000000  0.000000 )
               b(3) = (  0.000000  0.000000  1.000000 )

     PseudoPot. # 1 for Fe read from file:
     /rds/homes/b/bxp912/pp/Fe.pbe-spn-kjpaw_psl.1.0.0.UPF
     MD5 check sum: 42f43b795421b414b0dc916aa790dbcb
     Pseudo is Projector augmented-wave + core cor, Zval = 16.0
     Generated using "atomic" code by A. Dal Corso v.6.3
     Shape of augmentation charge: PSQ
     Using radial grid of 1191 points,  6 beta functions with:
                l(1) =   0
                l(2) =   0
                l(3) =   1
                l(4) =   1
                l(5) =   2
                l(6) =   2
     Q(r) pseudized with 0 coefficients

     PseudoPot. # 2 for Fe read from file:
     /rds/homes/b/bxp912/pp/Fe.pbe-spn-kjpaw_psl.1.0.0.UPF
     MD5 check sum: 42f43b795421b414b0dc916aa790dbcb
     Pseudo is Projector augmented-wave + core cor, Zval = 16.0
     Generated using "atomic" code by A. Dal Corso v.6.3
     Shape of augmentation charge: PSQ
     Using radial grid of 1191 points,  6 beta functions with:
                l(1) =   0
                l(2) =   0
                l(3) =   1
                l(4) =   1
                l(5) =   2
                l(6) =   2
     Q(r) pseudized with 0 coefficients

     atomic species   valence    mass     pseudopotential
        Fe1           16.00    55.84500     Fe( 1.00)
        Fe2           16.00    55.84500     Fe( 1.00)

     Starting magnetic structure
     atomic species   magnetization
        Fe1          0.100
        Fe2          0.100

     16 Sym. Ops., with inversion, found

   Cartesian axes

     site n.     atom                  positions (alat units)
         1           Fe1 tau(   1) = (   0.0000000   0.0000000   0.0000000  )
         2           Fe2 tau(   2) = (   0.2503338   0.2500004   0.2500004  )
         3           Fe1 tau(   3) = (   0.0000000   0.0000000   0.5000000  )
         4           Fe2 tau(   4) = (   0.2503338   0.2500004   0.7499996  )
         5           Fe1 tau(   5) = (   0.0000000   0.5000000   0.0000000  )
         6           Fe2 tau(   6) = (   0.2503338   0.7499996   0.2500004  )
         7           Fe1 tau(   7) = (   0.0000000   0.5000000   0.5000000  )
         8           Fe2 tau(   8) = (   0.2503338   0.7499996   0.7499996  )
         9           Fe1 tau(   9) = (   0.5006667   0.0000000   0.0000000  )
        10           Fe2 tau(  10) = (   0.7509996   0.2500004   0.2500004  )
        11           Fe1 tau(  11) = (   0.5006667   0.0000000   0.5000000  )
        12           Fe2 tau(  12) = (   0.7509996   0.2500004   0.7499996  )
        13           Fe1 tau(  13) = (   0.5006667   0.5000000   0.0000000  )
        14           Fe2 tau(  14) = (   0.7509996   0.7499996   0.2500004  )
        15           Fe1 tau(  15) = (   0.5006667   0.5000000   0.5000000  )
        16           Fe2 tau(  16) = (   0.7509996   0.7499996   0.7499996  )

     number of k points=    75  Marzari-Vanderbilt smearing, width (Ry)=  0.0400
                       cart. coord. in units 2pi/alat
        k(    1) = (   0.0554816   0.0555556   0.0555556), wk =   0.0109739
        k(    2) = (   0.0554816   0.0555556   0.1666667), wk =   0.0219479
        k(    3) = (   0.0554816   0.0555556   0.2777778), wk =   0.0219479
        k(    4) = (   0.0554816   0.0555556   0.3888889), wk =   0.0219479
        k(    5) = (   0.0554816   0.0555556  -0.5000000), wk =   0.0109739
        k(    6) = (   0.0554816   0.1666667   0.1666667), wk =   0.0109739
        k(    7) = (   0.0554816   0.1666667   0.2777778), wk =   0.0219479
        k(    8) = (   0.0554816   0.1666667   0.3888889), wk =   0.0219479
        k(    9) = (   0.0554816   0.1666667  -0.5000000), wk =   0.0109739
        k(   10) = (   0.0554816   0.2777778   0.2777778), wk =   0.0109739
        k(   11) = (   0.0554816   0.2777778   0.3888889), wk =   0.0219479
        k(   12) = (   0.0554816   0.2777778  -0.5000000), wk =   0.0109739
        k(   13) = (   0.0554816   0.3888889   0.3888889), wk =   0.0109739
        k(   14) = (   0.0554816   0.3888889  -0.5000000), wk =   0.0109739
        k(   15) = (   0.0554816  -0.5000000  -0.5000000), wk =   0.0027435
        k(   16) = (   0.1664447   0.0555556   0.0555556), wk =   0.0109739
        k(   17) = (   0.1664447   0.0555556   0.1666667), wk =   0.0219479
        k(   18) = (   0.1664447   0.0555556   0.2777778), wk =   0.0219479
        k(   19) = (   0.1664447   0.0555556   0.3888889), wk =   0.0219479
        k(   20) = (   0.1664447   0.0555556  -0.5000000), wk =   0.0109739
        k(   21) = (   0.1664447   0.1666667   0.1666667), wk =   0.0109739
        k(   22) = (   0.1664447   0.1666667   0.2777778), wk =   0.0219479
        k(   23) = (   0.1664447   0.1666667   0.3888889), wk =   0.0219479
        k(   24) = (   0.1664447   0.1666667  -0.5000000), wk =   0.0109739
        k(   25) = (   0.1664447   0.2777778   0.2777778), wk =   0.0109739
        k(   26) = (   0.1664447   0.2777778   0.3888889), wk =   0.0219479
        k(   27) = (   0.1664447   0.2777778  -0.5000000), wk =   0.0109739
        k(   28) = (   0.1664447   0.3888889   0.3888889), wk =   0.0109739
        k(   29) = (   0.1664447   0.3888889  -0.5000000), wk =   0.0109739
        k(   30) = (   0.1664447  -0.5000000  -0.5000000), wk =   0.0027435
        k(   31) = (   0.2774079   0.0555556   0.0555556), wk =   0.0109739
        k(   32) = (   0.2774079   0.0555556   0.1666667), wk =   0.0219479
        k(   33) = (   0.2774079   0.0555556   0.2777778), wk =   0.0219479
        k(   34) = (   0.2774079   0.0555556   0.3888889), wk =   0.0219479
        k(   35) = (   0.2774079   0.0555556  -0.5000000), wk =   0.0109739
        k(   36) = (   0.2774079   0.1666667   0.1666667), wk =   0.0109739
        k(   37) = (   0.2774079   0.1666667   0.2777778), wk =   0.0219479
        k(   38) = (   0.2774079   0.1666667   0.3888889), wk =   0.0219479
        k(   39) = (   0.2774079   0.1666667  -0.5000000), wk =   0.0109739
        k(   40) = (   0.2774079   0.2777778   0.2777778), wk =   0.0109739
        k(   41) = (   0.2774079   0.2777778   0.3888889), wk =   0.0219479
        k(   42) = (   0.2774079   0.2777778  -0.5000000), wk =   0.0109739
        k(   43) = (   0.2774079   0.3888889   0.3888889), wk =   0.0109739
        k(   44) = (   0.2774079   0.3888889  -0.5000000), wk =   0.0109739
        k(   45) = (   0.2774079  -0.5000000  -0.5000000), wk =   0.0027435
        k(   46) = (   0.3883711   0.0555556   0.0555556), wk =   0.0109739
        k(   47) = (   0.3883711   0.0555556   0.1666667), wk =   0.0219479
        k(   48) = (   0.3883711   0.0555556   0.2777778), wk =   0.0219479
        k(   49) = (   0.3883711   0.0555556   0.3888889), wk =   0.0219479
        k(   50) = (   0.3883711   0.0555556  -0.5000000), wk =   0.0109739
        k(   51) = (   0.3883711   0.1666667   0.1666667), wk =   0.0109739
        k(   52) = (   0.3883711   0.1666667   0.2777778), wk =   0.0219479
        k(   53) = (   0.3883711   0.1666667   0.3888889), wk =   0.0219479
        k(   54) = (   0.3883711   0.1666667  -0.5000000), wk =   0.0109739
        k(   55) = (   0.3883711   0.2777778   0.2777778), wk =   0.0109739
        k(   56) = (   0.3883711   0.2777778   0.3888889), wk =   0.0219479
        k(   57) = (   0.3883711   0.2777778  -0.5000000), wk =   0.0109739
        k(   58) = (   0.3883711   0.3888889   0.3888889), wk =   0.0109739
        k(   59) = (   0.3883711   0.3888889  -0.5000000), wk =   0.0109739
        k(   60) = (   0.3883711  -0.5000000  -0.5000000), wk =   0.0027435
        k(   61) = (  -0.4993342   0.0555556   0.0555556), wk =   0.0054870
        k(   62) = (  -0.4993342   0.0555556   0.1666667), wk =   0.0109739
        k(   63) = (  -0.4993342   0.0555556   0.2777778), wk =   0.0109739
        k(   64) = (  -0.4993342   0.0555556   0.3888889), wk =   0.0109739
        k(   65) = (  -0.4993342   0.0555556  -0.5000000), wk =   0.0054870
        k(   66) = (  -0.4993342   0.1666667   0.1666667), wk =   0.0054870
        k(   67) = (  -0.4993342   0.1666667   0.2777778), wk =   0.0109739
        k(   68) = (  -0.4993342   0.1666667   0.3888889), wk =   0.0109739
        k(   69) = (  -0.4993342   0.1666667  -0.5000000), wk =   0.0054870
        k(   70) = (  -0.4993342   0.2777778   0.2777778), wk =   0.0054870
        k(   71) = (  -0.4993342   0.2777778   0.3888889), wk =   0.0109739
        k(   72) = (  -0.4993342   0.2777778  -0.5000000), wk =   0.0054870
        k(   73) = (  -0.4993342   0.3888889   0.3888889), wk =   0.0054870
        k(   74) = (  -0.4993342   0.3888889  -0.5000000), wk =   0.0054870
        k(   75) = (  -0.4993342  -0.5000000  -0.5000000), wk =   0.0013717

     Check: negative/imaginary core charge=   -0.000006    0.000000

     Initial potential from superposition of free atoms

     starting charge  255.99300, renormalised to  256.00000
     Starting wfcs are  160 randomized atomic wfcs
     Checking if some PAW data can be deallocated...

     Self-consistent Calculation

     iteration #  1     ecut=    71.00 Ry     beta= 0.10
     Davidson diagonalization with overlap
     ethr =  1.00E-02,  avg # of iterations =  3.4

     Threshold (ethr) on eigenvalues was too large:
     Diagonalizing with lowered threshold

     Davidson diagonalization with overlap
     ethr =  2.80E-04,  avg # of iterations =  3.3

     total energy              =   -5268.16599546 Ry
     Harris-Foulkes estimate   =   -5268.31087123 Ry
     estimated scf accuracy    <       0.81200056 Ry

     total magnetization       =    28.04 Bohr mag/cell
     absolute magnetization    =    28.39 Bohr mag/cell

[...]

     negative rho (up, down):  0.000E+00 2.254E-03

[...]

     total energy              =   -5268.18993891 Ry
     Harris-Foulkes estimate   =   -5268.18993708 Ry
     estimated scf accuracy    <       0.00000349 Ry

[...]

     iteration # 23     ecut=    71.00 Ry     beta= 0.10
     Davidson diagonalization with overlap
     ethr =  1.36E-09,  avg # of iterations =  3.0

[...]

     Magnetic moment per site:
     atom:    1    charge:   14.3678    magn:    2.1004    constr:    0.0000
     atom:    2    charge:   14.3674    magn:    2.1032    constr:    0.0000
     atom:    3    charge:   14.3678    magn:    2.1014    constr:    0.0000
     atom:    4    charge:   14.3674    magn:    2.1032    constr:    0.0000
     atom:    5    charge:   14.3678    magn:    2.1014    constr:    0.0000
     atom:    6    charge:   14.3674    magn:    2.1032    constr:    0.0000
     atom:    7    charge:   14.3677    magn:    2.1020    constr:    0.0000
     atom:    8    charge:   14.3674    magn:    2.1032    constr:    0.0000
     atom:    9    charge:   14.3678    magn:    2.0994    constr:    0.0000
     atom:   10    charge:   14.3674    magn:    2.1032    constr:    0.0000
     atom:   11    charge:   14.3674    magn:    2.1001    constr:    0.0000
     atom:   12    charge:   14.3674    magn:    2.1032    constr:    0.0000
     atom:   13    charge:   14.3674    magn:    2.1001    constr:    0.0000
     atom:   14    charge:   14.3674    magn:    2.1032    constr:    0.0000
     atom:   15    charge:   14.3675    magn:    2.1010    constr:    0.0000
     atom:   16    charge:   14.3674    magn:    2.1032    constr:    0.0000

     End of self-consistent calculation

     Number of k-points >= 100: set verbosity='high' to print the bands.

     the Fermi energy is    18.9423 ev

!    total energy              =   -5268.18994166 Ry
     Harris-Foulkes estimate   =   -5268.18993964 Ry
     estimated scf accuracy    <       0.00000097 Ry

     total all-electron energy =    -40728.934471 Ry

     The total energy is the sum of the following terms:

     one-electron contribution =   -1709.41174541 Ry
     hartree contribution      =    1022.99388187 Ry
     xc contribution           =    -444.24569924 Ry
     ewald contribution        =   -2812.98023413 Ry
     one-center paw contrib.   =   -1324.67090251 Ry
     smearing contrib. (-TS)   =       0.12475775 Ry

     total magnetization       =    32.92 Bohr mag/cell
     absolute magnetization    =    34.69 Bohr mag/cell

     convergence has been achieved in  23 iterations

     negative rho (up, down):  0.000E+00 2.470E-03

     Forces acting on atoms (cartesian axes, Ry/au):

     atom    1 type  1   force =     0.00000000    0.00000000    0.00000000
     atom    2 type  2   force =     0.00013433    0.00009216    0.00009216
     atom    3 type  1   force =     0.00000000    0.00000000    0.00000000
     atom    4 type  2   force =     0.00013433    0.00009216   -0.00009216
     atom    5 type  1   force =     0.00000000    0.00000000    0.00000000
     atom    6 type  2   force =     0.00013433   -0.00009216    0.00009216
     atom    7 type  1   force =     0.00000000    0.00000000    0.00000000
     atom    8 type  2   force =     0.00013433   -0.00009216   -0.00009216
     atom    9 type  1   force =     0.00000000    0.00000000    0.00000000
     atom   10 type  2   force =    -0.00013433    0.00009216    0.00009216
     atom   11 type  1   force =     0.00000000    0.00000000    0.00000000
     atom   12 type  2   force =    -0.00013433    0.00009216   -0.00009216
     atom   13 type  1   force =     0.00000000    0.00000000    0.00000000
     atom   14 type  2   force =    -0.00013433   -0.00009216    0.00009216
     atom   15 type  1   force =     0.00000000    0.00000000    0.00000000
     atom   16 type  2   force =    -0.00013433   -0.00009216   -0.00009216

     Total force =     0.000529     Total SCF correction =     0.004152
     SCF correction compared to forces is large: reduce conv_thr to get better values

     Computing stress (Cartesian axis) and pressure

     negative rho (up, down):  0.000E+00 2.470E-03
          total   stress  (Ry/bohr**3)                   (kbar)     P=   -4.87
  -0.00004100   0.00000000   0.00000000         -6.03      0.00      0.00
   0.00000000  -0.00002912   0.00000000          0.00     -4.28      0.00
   0.00000000   0.00000000  -0.00002912          0.00      0.00     -4.28

     Writing output data file aqEsaBqQWdTBNGux.save/

     General routines

     Parallel routines

   This run was terminated on:   3:28: 9   2Nov2020

   JOB DONE.