     Program PWSCF v.6.3 starts on 13Jun2020 at 22:56:51

     R & G space division:  proc/nbgrp/npool/nimage =      20
     Reading input from wd/eos/eos_008.in
Warning: card &IONS ignored
Warning: card ION_DYNAMICS = 'BFGS', ignored
Warning: card / ignored
Warning: card &CELL ignored
Warning: card CELL_DYNAMICS = 'BFGS', ignored
Warning: card CELL_FACTOR = 2.0, ignored
Warning: card PRESS = 0.0, ignored
Warning: card / ignored

     Current dimensions of program PWSCF are:
     Max number of different atomic species (ntypx) = 10
     Max number of k-points (npk) =  40000
     Max angular momentum in pseudopotentials (lmaxx) =  3
               file Fe.pbe-spn-kjpaw_psl.1.0.0.UPF: wavefunction(s)  3P 3D renormalized
               file Fe.pbe-spn-kjpaw_psl.1.0.0.UPF: wavefunction(s)  3P 3D renormalized

     Subspace diagonalization in iterative solution of the eigenvalue problem:
     a serial algorithm will be used

     Found symmetry operation: I + (  0.0000  0.0000 -0.5000)
     This is a supercell, fractional translations are disabled

     bravais-lattice index     =            0
     lattice parameter (alat)  =      10.5935  a.u.
     unit-cell volume          =    1188.8329 (a.u.)^3
     number of atoms/cell      =           16
     number of atomic types    =            2
     number of electrons       =       256.00
     number of Kohn-Sham states=          154
     kinetic-energy cutoff     =      71.0000  Ry
     charge density cutoff     =     430.0000  Ry
     convergence threshold     =      1.0E-06
     mixing beta               =       0.1000
     number of iterations used =           10  plain     mixing
     Exchange-correlation      = SLA PW PBX PBC ( 1  4  3  4 0 0)

     celldm(1)=  10.593520  celldm(2)=   0.000000  celldm(3)=   0.000000
     celldm(4)=   0.000000  celldm(5)=   0.000000  celldm(6)=   0.000000

     crystal axes: (cart. coord. in units of alat)
               a(1) = (   1.000000   0.000000   0.000000 )
               a(2) = (   0.000000   1.000000   0.000000 )
               a(3) = (   0.000000   0.000000   1.000000 )

     reciprocal axes: (cart. coord. in units 2 pi/alat)
               b(1) = (  1.000000  0.000000  0.000000 )
               b(2) = (  0.000000  1.000000  0.000000 )
               b(3) = (  0.000000  0.000000  1.000000 )

     PseudoPot. # 1 for Fe read from file:
     /rds/homes/b/bxp912/pp/Fe.pbe-spn-kjpaw_psl.1.0.0.UPF
     MD5 check sum: 42f43b795421b414b0dc916aa790dbcb
     Pseudo is Projector augmented-wave + core cor, Zval = 16.0
     Generated using "atomic" code by A. Dal Corso v.6.3
     Shape of augmentation charge: PSQ
     Using radial grid of 1191 points,  6 beta functions with:
                l(1) =   0
                l(2) =   0
                l(3) =   1
                l(4) =   1
                l(5) =   2
                l(6) =   2
     Q(r) pseudized with 0 coefficients

     PseudoPot. # 2 for Fe read from file:
     /rds/homes/b/bxp912/pp/Fe.pbe-spn-kjpaw_psl.1.0.0.UPF
     MD5 check sum: 42f43b795421b414b0dc916aa790dbcb
     Pseudo is Projector augmented-wave + core cor, Zval = 16.0
     Generated using "atomic" code by A. Dal Corso v.6.3
     Shape of augmentation charge: PSQ
     Using radial grid of 1191 points,  6 beta functions with:
                l(1) =   0
                l(2) =   0
                l(3) =   1
                l(4) =   1
                l(5) =   2
                l(6) =   2
     Q(r) pseudized with 0 coefficients

     atomic species   valence    mass     pseudopotential
        Fe1           16.00    55.84500     Fe( 1.00)
        Fe2           16.00    55.84500     Fe( 1.00)

     Starting magnetic structure
     atomic species   magnetization
        Fe1          0.100
        Fe2          0.100

     48 Sym. Ops., with inversion, found

   Cartesian axes

     site n.     atom                  positions (alat units)
         1           Fe1 tau(   1) = (   0.0000000   0.0000000   0.0000000  )
         2           Fe2 tau(   2) = (   0.2500004   0.2500004   0.2500004  )
         3           Fe1 tau(   3) = (   0.0000000   0.0000000   0.5000000  )
         4           Fe2 tau(   4) = (   0.2500004   0.2500004   0.7499996  )
         5           Fe1 tau(   5) = (   0.0000000   0.5000000   0.0000000  )
         6           Fe2 tau(   6) = (   0.2500004   0.7499996   0.2500004  )
         7           Fe1 tau(   7) = (   0.0000000   0.5000000   0.5000000  )
         8           Fe2 tau(   8) = (   0.2500004   0.7499996   0.7499996  )
         9           Fe1 tau(   9) = (   0.5000000   0.0000000   0.0000000  )
        10           Fe2 tau(  10) = (   0.7499996   0.2500004   0.2500004  )
        11           Fe1 tau(  11) = (   0.5000000   0.0000000   0.5000000  )
        12           Fe2 tau(  12) = (   0.7499996   0.2500004   0.7499996  )
        13           Fe1 tau(  13) = (   0.5000000   0.5000000   0.0000000  )
        14           Fe2 tau(  14) = (   0.7499996   0.7499996   0.2500004  )
        15           Fe1 tau(  15) = (   0.5000000   0.5000000   0.5000000  )
        16           Fe2 tau(  16) = (   0.7499996   0.7499996   0.7499996  )

     number of k points=    35  Marzari-Vanderbilt smearing, width (Ry)=  0.0400
                       cart. coord. in units 2pi/alat
        k(    1) = (   0.0555556   0.0555556   0.0555556), wk =   0.0109739
        k(    2) = (   0.0555556   0.0555556   0.1666667), wk =   0.0329218
        k(    3) = (   0.0555556   0.0555556   0.2777778), wk =   0.0329218
        k(    4) = (   0.0555556   0.0555556   0.3888889), wk =   0.0329218
        k(    5) = (   0.0555556   0.0555556  -0.5000000), wk =   0.0164609
        k(    6) = (   0.0555556   0.1666667   0.1666667), wk =   0.0329218
        k(    7) = (   0.0555556   0.1666667   0.2777778), wk =   0.0658436
        k(    8) = (   0.0555556   0.1666667   0.3888889), wk =   0.0658436
        k(    9) = (   0.0555556   0.1666667  -0.5000000), wk =   0.0329218
        k(   10) = (   0.0555556   0.2777778   0.2777778), wk =   0.0329218
        k(   11) = (   0.0555556   0.2777778   0.3888889), wk =   0.0658436
        k(   12) = (   0.0555556   0.2777778  -0.5000000), wk =   0.0329218
        k(   13) = (   0.0555556   0.3888889   0.3888889), wk =   0.0329218
        k(   14) = (   0.0555556   0.3888889  -0.5000000), wk =   0.0329218
        k(   15) = (   0.0555556  -0.5000000  -0.5000000), wk =   0.0082305
        k(   16) = (   0.1666667   0.1666667   0.1666667), wk =   0.0109739
        k(   17) = (   0.1666667   0.1666667   0.2777778), wk =   0.0329218
        k(   18) = (   0.1666667   0.1666667   0.3888889), wk =   0.0329218
        k(   19) = (   0.1666667   0.1666667  -0.5000000), wk =   0.0164609
        k(   20) = (   0.1666667   0.2777778   0.2777778), wk =   0.0329218
        k(   21) = (   0.1666667   0.2777778   0.3888889), wk =   0.0658436
        k(   22) = (   0.1666667   0.2777778  -0.5000000), wk =   0.0329218
        k(   23) = (   0.1666667   0.3888889   0.3888889), wk =   0.0329218
        k(   24) = (   0.1666667   0.3888889  -0.5000000), wk =   0.0329218
        k(   25) = (   0.1666667  -0.5000000  -0.5000000), wk =   0.0082305
        k(   26) = (   0.2777778   0.2777778   0.2777778), wk =   0.0109739
        k(   27) = (   0.2777778   0.2777778   0.3888889), wk =   0.0329218
        k(   28) = (   0.2777778   0.2777778  -0.5000000), wk =   0.0164609
        k(   29) = (   0.2777778   0.3888889   0.3888889), wk =   0.0329218
        k(   30) = (   0.2777778   0.3888889  -0.5000000), wk =   0.0329218
        k(   31) = (   0.2777778  -0.5000000  -0.5000000), wk =   0.0082305
        k(   32) = (   0.3888889   0.3888889   0.3888889), wk =   0.0109739
        k(   33) = (   0.3888889   0.3888889  -0.5000000), wk =   0.0164609
        k(   34) = (   0.3888889  -0.5000000  -0.5000000), wk =   0.0082305
        k(   35) = (  -0.5000000  -0.5000000  -0.5000000), wk =   0.0013717

     Check: negative/imaginary core charge=   -0.000006    0.000000

     Initial potential from superposition of free atoms

     starting charge  255.99300, renormalised to  256.00000
     Starting wfcs are  160 randomized atomic wfcs
     Checking if some PAW data can be deallocated...

     Self-consistent Calculation

     iteration #  1     ecut=    71.00 Ry     beta= 0.10
     Davidson diagonalization with overlap
     ethr =  1.00E-02,  avg # of iterations =  3.3

     Threshold (ethr) on eigenvalues was too large:
     Diagonalizing with lowered threshold

     Davidson diagonalization with overlap
     ethr =  2.01E-04,  avg # of iterations =  3.5

     total energy              =   -5267.97680198 Ry
     Harris-Foulkes estimate   =   -5268.02585205 Ry
     estimated scf accuracy    <       0.59563633 Ry

     total magnetization       =    28.02 Bohr mag/cell
     absolute magnetization    =    28.12 Bohr mag/cell

[...]

     negative rho (up, down):  0.000E+00 3.392E-03

[...]

     total energy              =   -5268.18949207 Ry
     Harris-Foulkes estimate   =   -5268.18949093 Ry
     estimated scf accuracy    <       0.00000393 Ry

[...]

     iteration # 18     ecut=    71.00 Ry     beta= 0.10
     Davidson diagonalization with overlap
     ethr =  1.54E-09,  avg # of iterations =  2.6

[...]

     Magnetic moment per site:
     atom:    1    charge:   14.3664    magn:    2.0989    constr:    0.0000
     atom:    2    charge:   14.3664    magn:    2.1010    constr:    0.0000
     atom:    3    charge:   14.3664    magn:    2.0996    constr:    0.0000
     atom:    4    charge:   14.3664    magn:    2.1010    constr:    0.0000
     atom:    5    charge:   14.3664    magn:    2.0996    constr:    0.0000
     atom:    6    charge:   14.3664    magn:    2.1010    constr:    0.0000
     atom:    7    charge:   14.3665    magn:    2.1001    constr:    0.0000
     atom:    8    charge:   14.3664    magn:    2.1010    constr:    0.0000
     atom:    9    charge:   14.3664    magn:    2.0996    constr:    0.0000
     atom:   10    charge:   14.3664    magn:    2.1010    constr:    0.0000
     atom:   11    charge:   14.3665    magn:    2.1001    constr:    0.0000
     atom:   12    charge:   14.3664    magn:    2.1010    constr:    0.0000
     atom:   13    charge:   14.3665    magn:    2.1001    constr:    0.0000
     atom:   14    charge:   14.3664    magn:    2.1010    constr:    0.0000
     atom:   15    charge:   14.3665    magn:    2.1005    constr:    0.0000
     atom:   16    charge:   14.3664    magn:    2.1010    constr:    0.0000

     End of self-consistent calculation

 ------ SPIN UP ------------

          k = 0.0556 0.0556 0.0556 ( 11990 PWs)   bands (ev):

   -69.0896 -69.0132 -69.0132 -69.0132 -69.0012 -69.0012 -69.0012 -68.9998
   -68.9997 -68.9997 -68.9993 -68.9993 -68.9990 -68.9949 -68.9935 -68.9349
   -35.3130 -35.3129 -35.3129 -35.3106 -35.3106 -35.3105 -35.1838 -35.1838
   -35.1789 -35.1193 -35.1162 -35.1162 -35.1162 -35.0991 -35.0991 -35.0880
   -35.0880 -35.0880 -35.0594 -35.0594 -35.0400 -35.0291 -35.0290 -35.0290
   -35.0196 -35.0196 -35.0196 -35.0101 -35.0100 -35.0100 -35.0071 -35.0071
   -35.0071 -35.0001 -35.0001 -35.0001 -34.9911 -34.9911 -34.9911 -34.8600
   -34.8580 -34.8580 -34.8579 -34.8555 -34.8555 -34.8555 -34.8554 -34.8554
    10.3543  13.9163  13.9163  13.9163  13.9355  13.9355  13.9355  13.9646
    13.9646  13.9646  13.9669  13.9669  14.3732  14.3732  14.3732  15.5511
    15.5637  15.5637  15.5637  15.5764  15.5764  15.5764  15.6363  15.6363
    15.7118  15.7118  15.7118  15.7805  15.7805  15.8358  16.0514  16.0514
    16.0514  16.7001  16.7001  16.7426  17.0277  17.0277  17.0277  17.1069
    17.1070  17.1070  17.2003  17.2003  17.2003  17.2815  17.2815  17.2815
    17.9178  17.9178  17.9178  17.9188  17.9188  17.9619  17.9619  17.9619
    18.0080  18.0080  18.0080  18.0145  18.0146  18.0146  18.1294  18.1294
    18.1294  18.1399  18.1399  18.1400  18.1682  18.1682  18.1697  18.1697
    19.0339  19.0339  19.0339  19.0874  19.0874  19.0874  19.1985  19.2650
    19.2650  19.2796  19.2796  19.2796  19.6072  19.6072  19.6072  19.8059
    19.8059  19.8060

[...]

          k =-0.5000-0.5000-0.5000 ( 11992 PWs)   bands (ev):

[...]

 ------ SPIN DOWN ----------

[...]

          k = 0.3889-0.5000-0.5000 ( 11992 PWs)   bands (ev):

[...]

          k =-0.5000-0.5000-0.5000 ( 11992 PWs)   bands (ev):

   -66.5379 -66.5377 -66.5377 -66.5377 -66.5375 -66.5375 -66.5375 -66.5374
   -66.4779 -66.4777 -66.4777 -66.4777 -66.4775 -66.4775 -66.4775 -66.4774
   -32.7741 -32.7741 -32.7741 -32.7740 -32.7740 -32.7739 -32.7739 -32.7739
   -32.7739 -32.7739 -32.7739 -32.7738 -32.7738 -32.7738 -32.7738 -32.7738
   -32.7388 -32.7387 -32.7387 -32.7387 -32.7386 -32.7386 -32.7386 -32.7386
   -32.5055 -32.5054 -32.5054 -32.5054 -32.5053 -32.5053 -32.5053 -32.5053
   -32.4668 -32.4668 -32.4668 -32.4668 -32.4668 -32.4667 -32.4667 -32.4667
   -32.4666 -32.4666 -32.4666 -32.4666 -32.4666 -32.4665 -32.4665 -32.4665
    13.9366  13.9367  13.9367  13.9367  13.9367  13.9367  13.9367  13.9367
    16.9660  16.9660  16.9661  16.9661  16.9661  16.9661  16.9661  16.9661
    16.9662  16.9662  16.9662  16.9662  16.9662  16.9662  16.9663  16.9663
    17.3502  17.3502  17.3502  17.3502  17.3503  17.3503  17.3503  17.3503
    17.4526  17.4526  17.4526  17.4527  17.4527  17.4527  17.4527  17.4527
    17.4528  17.4528  17.4528  17.4528  17.4528  17.4529  17.4529  17.4529
    20.5946  20.5946  20.5946  20.5947  20.5947  20.5947  20.5948  20.5948
    20.5948  20.5948  20.5948  20.5948  20.5948  20.5949  20.5949  20.5949
    20.6289  20.6289  20.6290  20.6290  20.6290  20.6291  20.6291  20.6291
    20.6291  20.6291  20.6291  20.6291  20.6291  20.6291  20.6292  20.6292
    20.9762  20.9762  20.9762  20.9762  20.9763  20.9763  20.9763  20.9763
    27.3415  27.3415

     the Fermi energy is    18.9742 ev

!    total energy              =   -5268.18949398 Ry
     Harris-Foulkes estimate   =   -5268.18949261 Ry
     estimated scf accuracy    <       0.00000043 Ry

     total all-electron energy =    -40728.934023 Ry

     The total energy is the sum of the following terms:

     one-electron contribution =   -1707.43606838 Ry
     hartree contribution      =    1022.28418154 Ry
     xc contribution           =    -444.26065861 Ry
     ewald contribution        =   -2814.22998273 Ry
     one-center paw contrib.   =   -1324.67113450 Ry
     smearing contrib. (-TS)   =       0.12416870 Ry

     total magnetization       =    32.90 Bohr mag/cell
     absolute magnetization    =    34.66 Bohr mag/cell

     convergence has been achieved in  18 iterations

     negative rho (up, down):  0.000E+00 2.465E-03

     Forces acting on atoms (cartesian axes, Ry/au):

     atom    1 type  1   force =     0.00000000   -0.00000000    0.00000000
     atom    2 type  2   force =     0.00001164    0.00001164    0.00001164
     atom    3 type  1   force =     0.00000000    0.00000000   -0.00000000
     atom    4 type  2   force =     0.00001164    0.00001164   -0.00001164
     atom    5 type  1   force =     0.00000000   -0.00000000    0.00000000
     atom    6 type  2   force =     0.00001164   -0.00001164    0.00001164
     atom    7 type  1   force =     0.00000000    0.00000000    0.00000000
     atom    8 type  2   force =     0.00001164   -0.00001164   -0.00001164
     atom    9 type  1   force =     0.00000000    0.00000000    0.00000000
     atom   10 type  2   force =    -0.00001164    0.00001164    0.00001164
     atom   11 type  1   force =     0.00000000   -0.00000000    0.00000000
     atom   12 type  2   force =    -0.00001164    0.00001164   -0.00001164
     atom   13 type  1   force =     0.00000000    0.00000000    0.00000000
     atom   14 type  2   force =    -0.00001164   -0.00001164    0.00001164
     atom   15 type  1   force =     0.00000000    0.00000000    0.00000000
     atom   16 type  2   force =    -0.00001164   -0.00001164   -0.00001164

     Total force =     0.000057     Total SCF correction =     0.002653
     SCF correction compared to forces is large: reduce conv_thr to get better values

     Computing stress (Cartesian axis) and pressure

     negative rho (up, down):  0.000E+00 2.465E-03
          total   stress  (Ry/bohr**3)                   (kbar)     P=   -1.66
  -0.00001127   0.00000000   0.00000000         -1.66      0.00      0.00
   0.00000000  -0.00001127   0.00000000          0.00     -1.66      0.00
   0.00000000   0.00000000  -0.00001127          0.00      0.00     -1.66

     Writing output data file kShQgLxMfoMjBmCo.save/

     General routines

     Parallel routines

   This run was terminated on:  23: 5:16  13Jun2020

   JOB DONE.