     Program PWSCF v.6.3 starts on  2Nov2020 at 15:26: 1

     R & G space division:  proc/nbgrp/npool/nimage =      40
     Reading input from wd/ec/ec_6_005.in
Warning: card &IONS ignored
Warning: card ION_DYNAMICS = 'BFGS', ignored
Warning: card / ignored
Warning: card &CELL ignored
Warning: card CELL_DYNAMICS = 'BFGS', ignored
Warning: card CELL_FACTOR = 2.0, ignored
Warning: card PRESS = 0.0, ignored
Warning: card / ignored

     Current dimensions of program PWSCF are:
     Max number of different atomic species (ntypx) = 10
     Max number of k-points (npk) =  40000
     Max angular momentum in pseudopotentials (lmaxx) =  3
               file Fe.pbe-spn-kjpaw_psl.1.0.0.UPF: wavefunction(s)  3P 3D renormalized
               file Fe.pbe-spn-kjpaw_psl.1.0.0.UPF: wavefunction(s)  3P 3D renormalized

     Subspace diagonalization in iterative solution of the eigenvalue problem:
     a serial algorithm will be used

     Found symmetry operation: I + (  0.0000  0.0000  0.5000)
     This is a supercell, fractional translations are disabled

     bravais-lattice index     =            0
     lattice parameter (alat)  =      10.5935  a.u.
     unit-cell volume          =    1188.8329 (a.u.)^3
     number of atoms/cell      =           16
     number of atomic types    =            2
     number of electrons       =       256.00
     number of Kohn-Sham states=          154
     kinetic-energy cutoff     =      71.0000  Ry
     charge density cutoff     =     430.0000  Ry
     convergence threshold     =      1.0E-06
     mixing beta               =       0.1000
     number of iterations used =           10  plain     mixing
     Exchange-correlation      = SLA PW PBX PBC ( 1  4  3  4 0 0)

     celldm(1)=  10.593520  celldm(2)=   0.000000  celldm(3)=   0.000000
     celldm(4)=   0.000000  celldm(5)=   0.000000  celldm(6)=   0.000000

     crystal axes: (cart. coord. in units of alat)
               a(1) = (   1.000002   0.002667   0.000000 )
               a(2) = (   0.002667   1.000002   0.000000 )
               a(3) = (   0.000000   0.000000   1.000002 )

     reciprocal axes: (cart. coord. in units 2 pi/alat)
               b(1) = (  1.000005 -0.002667  0.000000 )
               b(2) = ( -0.002667  1.000005  0.000000 )
               b(3) = (  0.000000  0.000000  0.999998 )

     PseudoPot. # 1 for Fe read from file:
     /rds/homes/b/bxp912/pp/Fe.pbe-spn-kjpaw_psl.1.0.0.UPF
     MD5 check sum: 42f43b795421b414b0dc916aa790dbcb
     Pseudo is Projector augmented-wave + core cor, Zval = 16.0
     Generated using "atomic" code by A. Dal Corso v.6.3
     Shape of augmentation charge: PSQ
     Using radial grid of 1191 points,  6 beta functions with:
                l(1) =   0
                l(2) =   0
                l(3) =   1
                l(4) =   1
                l(5) =   2
                l(6) =   2
     Q(r) pseudized with 0 coefficients

     PseudoPot. # 2 for Fe read from file:
     /rds/homes/b/bxp912/pp/Fe.pbe-spn-kjpaw_psl.1.0.0.UPF
     MD5 check sum: 42f43b795421b414b0dc916aa790dbcb
     Pseudo is Projector augmented-wave + core cor, Zval = 16.0
     Generated using "atomic" code by A. Dal Corso v.6.3
     Shape of augmentation charge: PSQ
     Using radial grid of 1191 points,  6 beta functions with:
                l(1) =   0
                l(2) =   0
                l(3) =   1
                l(4) =   1
                l(5) =   2
                l(6) =   2
     Q(r) pseudized with 0 coefficients

     atomic species   valence    mass     pseudopotential
        Fe1           16.00    55.84500     Fe( 1.00)
        Fe2           16.00    55.84500     Fe( 1.00)

     Starting magnetic structure
     atomic species   magnetization
        Fe1          0.100
        Fe2          0.100

      8 Sym. Ops., with inversion, found

   Cartesian axes

     site n.     atom                  positions (alat units)
         1           Fe1 tau(   1) = (   0.0000000   0.0000000   0.0000000  )
         2           Fe2 tau(   2) = (   0.2506677   0.2506677   0.2500010  )
         3           Fe1 tau(   3) = (   0.0000000   0.0000000   0.5000012  )
         4           Fe2 tau(   4) = (   0.2506677   0.2506677   0.7500013  )
         5           Fe1 tau(   5) = (   0.0013333   0.5000012   0.0000000  )
         6           Fe2 tau(   6) = (   0.2520010   0.7506680   0.2500010  )
         7           Fe1 tau(   7) = (   0.0013333   0.5000012   0.5000012  )
         8           Fe2 tau(   8) = (   0.2520010   0.7506680   0.7500013  )
         9           Fe1 tau(   9) = (   0.5000012   0.0013333   0.0000000  )
        10           Fe2 tau(  10) = (   0.7506680   0.2520010   0.2500010  )
        11           Fe1 tau(  11) = (   0.5000012   0.0013333   0.5000012  )
        12           Fe2 tau(  12) = (   0.7506680   0.2520010   0.7500013  )
        13           Fe1 tau(  13) = (   0.5013345   0.5013345   0.0000000  )
        14           Fe2 tau(  14) = (   0.7520014   0.7520014   0.2500010  )
        15           Fe1 tau(  15) = (   0.5013345   0.5013345   0.5000012  )
        16           Fe2 tau(  16) = (   0.7520014   0.7520014   0.7500013  )

     number of k points=   125  Marzari-Vanderbilt smearing, width (Ry)=  0.0400

     Number of k-points >= 100: set verbosity='high' to print them.

     Check: negative/imaginary core charge=   -0.000006    0.000000

     Initial potential from superposition of free atoms

     starting charge  255.99300, renormalised to  256.00000
     Starting wfcs are  160 randomized atomic wfcs
     Checking if some PAW data can be deallocated...

     Self-consistent Calculation

     iteration #  1     ecut=    71.00 Ry     beta= 0.10
     Davidson diagonalization with overlap
     ethr =  1.00E-02,  avg # of iterations =  3.4

     Threshold (ethr) on eigenvalues was too large:
     Diagonalizing with lowered threshold

     Davidson diagonalization with overlap
     ethr =  2.16E-04,  avg # of iterations =  3.6

     total energy              =   -5268.02482825 Ry
     Harris-Foulkes estimate   =   -5268.09749895 Ry
     estimated scf accuracy    <       0.63363805 Ry

     total magnetization       =    27.93 Bohr mag/cell
     absolute magnetization    =    28.05 Bohr mag/cell

[...]

     negative rho (up, down):  0.000E+00 7.397E-04

[...]

     iteration # 11     ecut=    71.00 Ry     beta= 0.10
     Davidson diagonalization with overlap
     c_bands:  2 eigenvalues not converged
     ethr =  2.52E-06,  avg # of iterations =  3.5

[...]

     total energy              =   -5268.18934207 Ry
     Harris-Foulkes estimate   =   -5268.18934194 Ry
     estimated scf accuracy    <       0.00000125 Ry

[...]

     iteration # 22     ecut=    71.00 Ry     beta= 0.10
     Davidson diagonalization with overlap
     ethr =  4.90E-10,  avg # of iterations =  1.0

[...]

     Magnetic moment per site:
     atom:    1    charge:   14.3556    magn:    2.0994    constr:    0.0000
     atom:    2    charge:   14.3555    magn:    2.1004    constr:    0.0000
     atom:    3    charge:   14.3556    magn:    2.1002    constr:    0.0000
     atom:    4    charge:   14.3555    magn:    2.1004    constr:    0.0000
     atom:    5    charge:   14.3556    magn:    2.0994    constr:    0.0000
     atom:    6    charge:   14.3555    magn:    2.1008    constr:    0.0000
     atom:    7    charge:   14.3555    magn:    2.0999    constr:    0.0000
     atom:    8    charge:   14.3555    magn:    2.1008    constr:    0.0000
     atom:    9    charge:   14.3556    magn:    2.0994    constr:    0.0000
     atom:   10    charge:   14.3555    magn:    2.1008    constr:    0.0000
     atom:   11    charge:   14.3555    magn:    2.0999    constr:    0.0000
     atom:   12    charge:   14.3555    magn:    2.1008    constr:    0.0000
     atom:   13    charge:   14.3556    magn:    2.0992    constr:    0.0000
     atom:   14    charge:   14.3555    magn:    2.1004    constr:    0.0000
     atom:   15    charge:   14.3554    magn:    2.0999    constr:    0.0000
     atom:   16    charge:   14.3555    magn:    2.1004    constr:    0.0000

     End of self-consistent calculation

     Number of k-points >= 100: set verbosity='high' to print the bands.

     the Fermi energy is    18.9745 ev

!    total energy              =   -5268.18934281 Ry
     Harris-Foulkes estimate   =   -5268.18934210 Ry
     estimated scf accuracy    <       0.00000078 Ry

     total all-electron energy =    -40728.933872 Ry

     The total energy is the sum of the following terms:

     one-electron contribution =   -1707.44523849 Ry
     hartree contribution      =    1022.28456325 Ry
     xc contribution           =    -444.25989558 Ry
     ewald contribution        =   -2814.22181764 Ry
     one-center paw contrib.   =   -1324.67108635 Ry
     smearing contrib. (-TS)   =       0.12413201 Ry

     total magnetization       =    32.90 Bohr mag/cell
     absolute magnetization    =    34.66 Bohr mag/cell

     convergence has been achieved in  22 iterations

     negative rho (up, down):  0.000E+00 2.462E-03

     Forces acting on atoms (cartesian axes, Ry/au):

     atom    1 type  1   force =     0.00000000    0.00000000    0.00000000
     atom    2 type  2   force =     0.00006897    0.00006897   -0.00010161
     atom    3 type  1   force =     0.00000000    0.00000000    0.00000000
     atom    4 type  2   force =     0.00006897    0.00006897    0.00010161
     atom    5 type  1   force =     0.00000000    0.00000000    0.00000000
     atom    6 type  2   force =     0.00041059   -0.00041059    0.00026057
     atom    7 type  1   force =     0.00000000    0.00000000    0.00000000
     atom    8 type  2   force =     0.00041059   -0.00041059   -0.00026057
     atom    9 type  1   force =     0.00000000    0.00000000    0.00000000
     atom   10 type  2   force =    -0.00041059    0.00041059    0.00026057
     atom   11 type  1   force =     0.00000000    0.00000000    0.00000000
     atom   12 type  2   force =    -0.00041059    0.00041059   -0.00026057
     atom   13 type  1   force =     0.00000000    0.00000000    0.00000000
     atom   14 type  2   force =    -0.00006897   -0.00006897   -0.00010161
     atom   15 type  1   force =     0.00000000    0.00000000    0.00000000
     atom   16 type  2   force =    -0.00006897   -0.00006897    0.00010161

     Total force =     0.001304     Total SCF correction =     0.005294
     SCF correction compared to forces is large: reduce conv_thr to get better values

     Computing stress (Cartesian axis) and pressure

     negative rho (up, down):  0.000E+00 2.462E-03
          total   stress  (Ry/bohr**3)                   (kbar)     P=   -2.85
  -0.00001956  -0.00004940   0.00000000         -2.88     -7.27      0.00
  -0.00004940  -0.00001956   0.00000000         -7.27     -2.88      0.00
   0.00000000   0.00000000  -0.00001909          0.00      0.00     -2.81

     Writing output data file lFNDeERGhuomRlqD.save/

     General routines

     Parallel routines

   This run was terminated on:  15:56: 8   2Nov2020

   JOB DONE.